  PAW_PBE Cs_sv 25Jan2019                
   9.00000000000000     
 parameters from PSCTR are:
   SHA256 =  0e16bce67778f8d3e6a1e8d49098acae95c0f8d441dd09aee70633bcf454619d Cs_sv/POTCAR
   COPYR  = (c) Copyright 25Jan2019 Georg Kresse
   COPYR  = This file is part of the software VASP. Any use, copying, and all other rights are regulated by the VASP license agreement.
   COPYR  = If you do not have a valid VASP license, you may not use, copy or distribute this file.
   VRHFIN =Cs: 5s5p6s
   LEXCH  = PE
   EATOM  =   555.6835 eV,   40.8416 Ry

   TITEL  = PAW_PBE Cs_sv 25Jan2019
   LULTRA =        F    use ultrasoft PP ?
   IUNSCR =        1    unscreen: 0-lin 1-nonlin 2-no
   RPACOR =    1.800    partial core radius
   POMASS =  132.900; ZVAL   =    9.000    mass and valenz
   RCORE  =    2.500    outmost cutoff radius
   RWIGS  =    2.500; RWIGS  =    1.323    wigner-seitz radius (au A)
   ENMAX  =  220.318; ENMIN  =  165.238 eV
   RCLOC  =    2.207    cutoff for local pot
   LCOR   =        T    correct aug charges
   LPAW   =        T    paw PP
   EAUG   =  407.933
   DEXC   =   -0.000
   RMAX   =    2.554    core radius for proj-oper
   RAUG   =    1.300    factor for augmentation sphere
   RDEP   =    2.590    radius for radial grids
   RDEPT  =    2.067    core radius for aug-charge
 
   Atomic configuration
   13 entries
     n  l   j            E        occ.
     1  0  0.50    -35790.1377   2.0000
     2  0  0.50     -5613.6201   2.0000
     2  1  1.50     -5035.0101   6.0000
     3  0  0.50     -1167.0767   2.0000
     3  1  1.50      -980.9754   6.0000
     3  2  2.50      -708.0703  10.0000
     4  0  0.50      -220.2386   2.0000
     4  1  1.50      -160.7596   6.0000
     4  2  2.50       -74.2354  10.0000
     5  0  0.50       -26.7287   2.0000
     6  0  0.50        -2.0862   1.0000
     5  1  1.50       -13.5159   6.0000
     5  2  2.50        -0.4136   0.0000
   Description
     l       E           TYP  RCUT    TYP  RCUT
     0    -26.7287425     23  1.900
     0     -2.0862306     23  1.900
     1    -13.5158719     23  2.300
     1     -2.7211652     23  2.300
     2     -0.4136171     23  2.500
   Error from kinetic energy argument (eV)
   NDATA  =      100
   STEP   =   20.000   1.050
  115.      108.      105.      99.0      95.9      89.8      83.8      80.8
  75.0      69.5      66.8      61.6      56.6      51.9      47.5      43.3
  39.4      35.8      32.4      27.8      25.1      22.5      19.1      17.1
  15.2      12.8      10.7      9.43      7.81      6.44      5.29      4.32
  3.51      2.84      2.28      1.83      1.35      1.06     0.767     0.597
 0.423     0.296     0.206     0.143     0.987E-01 0.689E-01 0.493E-01 0.343E-01
 0.272E-01 0.220E-01 0.191E-01 0.176E-01 0.161E-01 0.147E-01 0.131E-01 0.116E-01
 0.102E-01 0.863E-02 0.725E-02 0.613E-02 0.526E-02 0.462E-02 0.413E-02 0.369E-02
 0.335E-02 0.297E-02 0.259E-02 0.223E-02 0.187E-02 0.162E-02 0.141E-02 0.129E-02
 0.120E-02 0.112E-02 0.100E-02 0.877E-03 0.726E-03 0.596E-03 0.503E-03 0.466E-03
 0.451E-03 0.431E-03 0.388E-03 0.318E-03 0.252E-03 0.212E-03 0.199E-03 0.198E-03
 0.186E-03 0.157E-03 0.123E-03 0.104E-03 0.981E-04 0.962E-04 0.865E-04 0.711E-04
 0.585E-04 0.535E-04 0.505E-04 0.454E-04
END of PSCTR-controll parameters
 local part
   75.5890395431569     
  0.20791604E+03  0.20786250E+03  0.20770204E+03  0.20743490E+03  0.20706155E+03
  0.20658260E+03  0.20599888E+03  0.20531134E+03  0.20452112E+03  0.20362953E+03
  0.20263799E+03  0.20154812E+03  0.20036164E+03  0.19908045E+03  0.19770655E+03
  0.19624211E+03  0.19468939E+03  0.19305081E+03  0.19132891E+03  0.18952632E+03
  0.18764580E+03  0.18569022E+03  0.18366253E+03  0.18156580E+03  0.17940315E+03
  0.17717778E+03  0.17489298E+03  0.17255208E+03  0.17015844E+03  0.16771550E+03
  0.16522671E+03  0.16269555E+03  0.16012552E+03  0.15752014E+03  0.15488293E+03
  0.15221740E+03  0.14952706E+03  0.14681539E+03  0.14408586E+03  0.14134190E+03
  0.13858690E+03  0.13582420E+03  0.13305711E+03  0.13028885E+03  0.12752260E+03
  0.12476145E+03  0.12200841E+03  0.11926644E+03  0.11653839E+03  0.11382702E+03
  0.11113501E+03  0.10846492E+03  0.10581922E+03  0.10320029E+03  0.10061038E+03
  0.98051623E+02  0.95526065E+02  0.93035617E+02  0.90582078E+02  0.88167130E+02
  0.85792331E+02  0.83459126E+02  0.81168834E+02  0.78922659E+02  0.76721686E+02
  0.74566879E+02  0.72459088E+02  0.70399046E+02  0.68387375E+02  0.66424581E+02
  0.64511062E+02  0.62647110E+02  0.60832910E+02  0.59068545E+02  0.57354002E+02
  0.55689170E+02  0.54073848E+02  0.52507746E+02  0.50990490E+02  0.49521628E+02
  0.48100630E+02  0.46726895E+02  0.45399753E+02  0.44118473E+02  0.42882263E+02
  0.41690278E+02  0.40541620E+02  0.39435348E+02  0.38370477E+02  0.37345985E+02
  0.36360820E+02  0.35413897E+02  0.34504111E+02  0.33630335E+02  0.32791425E+02
  0.31986227E+02  0.31213577E+02  0.30472308E+02  0.29761250E+02  0.29079236E+02
  0.28425105E+02  0.27797704E+02  0.27195891E+02  0.26618538E+02  0.26064537E+02
  0.25532794E+02  0.25022243E+02  0.24531837E+02  0.24060558E+02  0.23607413E+02
  0.23171440E+02  0.22751706E+02  0.22347312E+02  0.21957388E+02  0.21581101E+02
  0.21217649E+02  0.20866267E+02  0.20526223E+02  0.20196823E+02  0.19877405E+02
  0.19567343E+02  0.19266049E+02  0.18972967E+02  0.18687576E+02  0.18409387E+02
  0.18137948E+02  0.17872835E+02  0.17613657E+02  0.17360055E+02  0.17111696E+02
  0.16868277E+02  0.16629523E+02  0.16395182E+02  0.16165028E+02  0.15938860E+02
  0.15716496E+02  0.15497777E+02  0.15282563E+02  0.15070731E+02  0.14862176E+02
  0.14656807E+02  0.14454549E+02  0.14255339E+02  0.14059123E+02  0.13865861E+02
  0.13675519E+02  0.13488072E+02  0.13303502E+02  0.13121797E+02  0.12942949E+02
  0.12766953E+02  0.12593808E+02  0.12423514E+02  0.12256075E+02  0.12091490E+02
  0.11929764E+02  0.11770896E+02  0.11614886E+02  0.11461732E+02  0.11311429E+02
  0.11163970E+02  0.11019343E+02  0.10877535E+02  0.10738529E+02  0.10602303E+02
  0.10468833E+02  0.10338091E+02  0.10210044E+02  0.10084657E+02  0.99618903E+01
  0.98417005E+01  0.97240413E+01  0.96088631E+01  0.94961132E+01  0.93857359E+01
  0.92776734E+01  0.91718652E+01  0.90682493E+01  0.89667617E+01  0.88673373E+01
  0.87699100E+01  0.86744129E+01  0.85807789E+01  0.84889405E+01  0.83988307E+01
  0.83103829E+01  0.82235312E+01  0.81382107E+01  0.80543579E+01  0.79719108E+01
  0.78908092E+01  0.78109950E+01  0.77324123E+01  0.76550076E+01  0.75787298E+01
  0.75035308E+01  0.74293650E+01  0.73561899E+01  0.72839656E+01  0.72126555E+01
  0.71422258E+01  0.70726455E+01  0.70038868E+01  0.69359247E+01  0.68687370E+01
  0.68023043E+01  0.67366101E+01  0.66716403E+01  0.66073835E+01  0.65438303E+01
  0.64809739E+01  0.64188093E+01  0.63573336E+01  0.62965453E+01  0.62364446E+01
  0.61770329E+01  0.61183129E+01  0.60602880E+01  0.60029625E+01  0.59463415E+01
  0.58904302E+01  0.58352342E+01  0.57807594E+01  0.57270112E+01  0.56739952E+01
  0.56217164E+01  0.55701792E+01  0.55193876E+01  0.54693445E+01  0.54200520E+01
  0.53715112E+01  0.53237222E+01  0.52766839E+01  0.52303939E+01  0.51848486E+01
  0.51400434E+01  0.50959721E+01  0.50526273E+01  0.50100005E+01  0.49680817E+01
  0.49268599E+01  0.48863226E+01  0.48464564E+01  0.48072466E+01  0.47686775E+01
  0.47307326E+01  0.46933942E+01  0.46566442E+01  0.46204634E+01  0.45848324E+01
  0.45497312E+01  0.45151394E+01  0.44810364E+01  0.44474015E+01  0.44142140E+01
  0.43814530E+01  0.43490982E+01  0.43171292E+01  0.42855263E+01  0.42542698E+01
  0.42233412E+01  0.41927221E+01  0.41623953E+01  0.41323441E+01  0.41025530E+01
  0.40730073E+01  0.40436934E+01  0.40145989E+01  0.39857123E+01  0.39570233E+01
  0.39285230E+01  0.39002033E+01  0.38720576E+01  0.38440802E+01  0.38162668E+01
  0.37886140E+01  0.37611198E+01  0.37337831E+01  0.37066039E+01  0.36795833E+01
  0.36527234E+01  0.36260270E+01  0.35994980E+01  0.35731408E+01  0.35469606E+01
  0.35209632E+01  0.34951549E+01  0.34695425E+01  0.34441331E+01  0.34189341E+01
  0.33939529E+01  0.33691973E+01  0.33446750E+01  0.33203938E+01  0.32963610E+01
  0.32725842E+01  0.32490703E+01  0.32258262E+01  0.32028581E+01  0.31801717E+01
  0.31577725E+01  0.31356650E+01  0.31138531E+01  0.30923403E+01  0.30711291E+01
  0.30502214E+01  0.30296183E+01  0.30093201E+01  0.29893264E+01  0.29696359E+01
  0.29502466E+01  0.29311557E+01  0.29123597E+01  0.28938542E+01  0.28756342E+01
  0.28576938E+01  0.28400267E+01  0.28226258E+01  0.28054834E+01  0.27885914E+01
  0.27719411E+01  0.27555235E+01  0.27393292E+01  0.27233485E+01  0.27075715E+01
  0.26919880E+01  0.26765878E+01  0.26613605E+01  0.26462959E+01  0.26313837E+01
  0.26166137E+01  0.26019759E+01  0.25874605E+01  0.25730581E+01  0.25587596E+01
  0.25445561E+01  0.25304396E+01  0.25164020E+01  0.25024362E+01  0.24885353E+01
  0.24746933E+01  0.24609046E+01  0.24471642E+01  0.24334677E+01  0.24198115E+01
  0.24061924E+01  0.23926081E+01  0.23790568E+01  0.23655374E+01  0.23520494E+01
  0.23385929E+01  0.23251687E+01  0.23117780E+01  0.22984228E+01  0.22851054E+01
  0.22718287E+01  0.22585959E+01  0.22454107E+01  0.22322772E+01  0.22191996E+01
  0.22061827E+01  0.21932311E+01  0.21803499E+01  0.21675443E+01  0.21548195E+01
  0.21421808E+01  0.21296335E+01  0.21171828E+01  0.21048340E+01  0.20925919E+01
  0.20804615E+01  0.20684473E+01  0.20565536E+01  0.20447846E+01  0.20331439E+01
  0.20216348E+01  0.20102604E+01  0.19990233E+01  0.19879256E+01  0.19769691E+01
  0.19661551E+01  0.19554846E+01  0.19449579E+01  0.19345751E+01  0.19243355E+01
  0.19142384E+01  0.19042822E+01  0.18944651E+01  0.18847849E+01  0.18752389E+01
  0.18658240E+01  0.18565369E+01  0.18473738E+01  0.18383307E+01  0.18294033E+01
  0.18205871E+01  0.18118772E+01  0.18032689E+01  0.17947570E+01  0.17863362E+01
  0.17780014E+01  0.17697471E+01  0.17615680E+01  0.17534588E+01  0.17454142E+01
  0.17374289E+01  0.17294980E+01  0.17216165E+01  0.17137797E+01  0.17059831E+01
  0.16982223E+01  0.16904935E+01  0.16827928E+01  0.16751167E+01  0.16674622E+01
  0.16598263E+01  0.16522065E+01  0.16446007E+01  0.16370069E+01  0.16294238E+01
  0.16218503E+01  0.16142854E+01  0.16067288E+01  0.15991805E+01  0.15916407E+01
  0.15841100E+01  0.15765892E+01  0.15690795E+01  0.15615825E+01  0.15540996E+01
  0.15466329E+01  0.15391846E+01  0.15317568E+01  0.15243521E+01  0.15169730E+01
  0.15096225E+01  0.15023032E+01  0.14950182E+01  0.14877703E+01  0.14805627E+01
  0.14733981E+01  0.14662796E+01  0.14592100E+01  0.14521921E+01  0.14452286E+01
  0.14383220E+01  0.14314747E+01  0.14246890E+01  0.14179668E+01  0.14113101E+01
  0.14047206E+01  0.13981997E+01  0.13917486E+01  0.13853683E+01  0.13790596E+01
  0.13728231E+01  0.13666589E+01  0.13605670E+01  0.13545474E+01  0.13485993E+01
  0.13427222E+01  0.13369151E+01  0.13311767E+01  0.13255057E+01  0.13199006E+01
  0.13143596E+01  0.13088807E+01  0.13034619E+01  0.12981010E+01  0.12927956E+01
  0.12875433E+01  0.12823415E+01  0.12771876E+01  0.12720790E+01  0.12670128E+01
  0.12619864E+01  0.12569970E+01  0.12520420E+01  0.12471187E+01  0.12422245E+01
  0.12373570E+01  0.12325135E+01  0.12276920E+01  0.12228901E+01  0.12181058E+01
  0.12133371E+01  0.12085823E+01  0.12038397E+01  0.11991078E+01  0.11943854E+01
  0.11896713E+01  0.11849646E+01  0.11802645E+01  0.11755705E+01  0.11708822E+01
  0.11661995E+01  0.11615222E+01  0.11568507E+01  0.11521851E+01  0.11475260E+01
  0.11428741E+01  0.11382301E+01  0.11335948E+01  0.11289694E+01  0.11243549E+01
  0.11197525E+01  0.11151637E+01  0.11105897E+01  0.11060320E+01  0.11014922E+01
  0.10969717E+01  0.10924722E+01  0.10879951E+01  0.10835420E+01  0.10791145E+01
  0.10747139E+01  0.10703417E+01  0.10659993E+01  0.10616880E+01  0.10574089E+01
  0.10531631E+01  0.10489518E+01  0.10447759E+01  0.10406361E+01  0.10365331E+01
  0.10324676E+01  0.10284400E+01  0.10244505E+01  0.10204995E+01  0.10165869E+01
  0.10127126E+01  0.10088765E+01  0.10050781E+01  0.10013171E+01  0.99759285E+00
  0.99390464E+00  0.99025170E+00  0.98663315E+00  0.98304801E+00  0.97949521E+00
  0.97597362E+00  0.97248202E+00  0.96901915E+00  0.96558369E+00  0.96217427E+00
  0.95878949E+00  0.95542796E+00  0.95208824E+00  0.94876893E+00  0.94546863E+00
  0.94218598E+00  0.93891964E+00  0.93566832E+00  0.93243078E+00  0.92920584E+00
  0.92599236E+00  0.92278930E+00  0.91959567E+00  0.91641057E+00  0.91323317E+00
  0.91006276E+00  0.90689869E+00  0.90374045E+00  0.90058759E+00  0.89743979E+00
  0.89429683E+00  0.89115858E+00  0.88802503E+00  0.88489623E+00  0.88177236E+00
  0.87865366E+00  0.87554045E+00  0.87243315E+00  0.86933222E+00  0.86623820E+00
  0.86315171E+00  0.86007341E+00  0.85700401E+00  0.85394427E+00  0.85089500E+00
  0.84785701E+00  0.84483116E+00  0.84181829E+00  0.83881928E+00  0.83583497E+00
  0.83286619E+00  0.82991376E+00  0.82697846E+00  0.82406104E+00  0.82116222E+00
  0.81828265E+00  0.81542295E+00  0.81258370E+00  0.80976540E+00  0.80696851E+00
  0.80419339E+00  0.80144037E+00  0.79870968E+00  0.79600149E+00  0.79331587E+00
  0.79065284E+00  0.78801231E+00  0.78539414E+00  0.78279811E+00  0.78022393E+00
  0.77767123E+00  0.77513959E+00  0.77262855E+00  0.77013755E+00  0.76766603E+00
  0.76521334E+00  0.76277881E+00  0.76036172E+00  0.75796131E+00  0.75557680E+00
  0.75320738E+00  0.75085222E+00  0.74851050E+00  0.74618136E+00  0.74386398E+00
  0.74155754E+00  0.73926124E+00  0.73697428E+00  0.73469593E+00  0.73242546E+00
  0.73016218E+00  0.72790545E+00  0.72565466E+00  0.72340925E+00  0.72116871E+00
  0.71893257E+00  0.71670044E+00  0.71447195E+00  0.71224684E+00  0.71002487E+00
  0.70780590E+00  0.70558982E+00  0.70337662E+00  0.70116633E+00  0.69895902E+00
  0.69675486E+00  0.69455404E+00  0.69235681E+00  0.69016346E+00  0.68797432E+00
  0.68578978E+00  0.68361026E+00  0.68143619E+00  0.67926808E+00  0.67710642E+00
  0.67495175E+00  0.67280463E+00  0.67066562E+00  0.66853529E+00  0.66641421E+00
  0.66430295E+00  0.66220204E+00  0.66011203E+00  0.65803344E+00  0.65596675E+00
  0.65391243E+00  0.65187091E+00  0.64984260E+00  0.64782787E+00  0.64582705E+00
  0.64384043E+00  0.64186827E+00  0.63991076E+00  0.63796806E+00  0.63604028E+00
  0.63412746E+00  0.63222961E+00  0.63034667E+00  0.62847853E+00  0.62662505E+00
  0.62478602E+00  0.62296120E+00  0.62115029E+00  0.61935299E+00  0.61756893E+00
  0.61579771E+00  0.61403891E+00  0.61229207E+00  0.61055669E+00  0.60883228E+00
  0.60711829E+00  0.60541417E+00  0.60371936E+00  0.60203329E+00  0.60035537E+00
  0.59868504E+00  0.59702172E+00  0.59536487E+00  0.59371394E+00  0.59206841E+00
  0.59042779E+00  0.58879158E+00  0.58715934E+00  0.58553064E+00  0.58390508E+00
  0.58228230E+00  0.58066197E+00  0.57904378E+00  0.57742750E+00  0.57581289E+00
  0.57419980E+00  0.57258809E+00  0.57097769E+00  0.56936857E+00  0.56776072E+00
  0.56615419E+00  0.56454908E+00  0.56294550E+00  0.56134361E+00  0.55974361E+00
  0.55814571E+00  0.55655018E+00  0.55495727E+00  0.55336732E+00  0.55178065E+00
  0.55019761E+00  0.54861859E+00  0.54704397E+00  0.54547416E+00  0.54390956E+00
  0.54235061E+00  0.54079770E+00  0.53925126E+00  0.53771167E+00  0.53617933E+00
  0.53465462E+00  0.53313789E+00  0.53162949E+00  0.53012974E+00  0.52863895E+00
  0.52715740E+00  0.52568533E+00  0.52422298E+00  0.52277055E+00  0.52132820E+00
  0.51989605E+00  0.51847421E+00  0.51706273E+00  0.51566163E+00  0.51427090E+00
  0.51289049E+00  0.51152031E+00  0.51016025E+00  0.50881017E+00  0.50746989E+00
  0.50613920E+00  0.50481789E+00  0.50350569E+00  0.50220232E+00  0.50090749E+00
  0.49962087E+00  0.49834210E+00  0.49707083E+00  0.49580668E+00  0.49454925E+00
  0.49329815E+00  0.49205299E+00  0.49081334E+00  0.48957883E+00  0.48834905E+00
  0.48712363E+00  0.48590217E+00  0.48468433E+00  0.48346975E+00  0.48225808E+00
  0.48104902E+00  0.47984225E+00  0.47863750E+00  0.47743450E+00  0.47623301E+00
  0.47503282E+00  0.47383375E+00  0.47263565E+00  0.47143839E+00  0.47024189E+00
  0.46904607E+00  0.46785090E+00  0.46665638E+00  0.46546252E+00  0.46426936E+00
  0.46307699E+00  0.46188548E+00  0.46069496E+00  0.45950557E+00  0.45831746E+00
  0.45713082E+00  0.45594586E+00  0.45476280E+00  0.45358188E+00  0.45240336E+00
  0.45122750E+00  0.45005459E+00  0.44888490E+00  0.44771871E+00  0.44655631E+00
  0.44539798E+00  0.44424401E+00  0.44309465E+00  0.44195019E+00  0.44081087E+00
  0.43967695E+00  0.43854867E+00  0.43742625E+00  0.43630990E+00  0.43519983E+00
  0.43409621E+00  0.43299920E+00  0.43190893E+00  0.43082552E+00  0.42974905E+00
  0.42867959E+00  0.42761719E+00  0.42656186E+00  0.42551361E+00  0.42447240E+00
  0.42343821E+00  0.42241097E+00  0.42139059E+00  0.42037697E+00  0.41937000E+00
  0.41836953E+00  0.41737539E+00  0.41638742E+00  0.41540541E+00  0.41442916E+00
  0.41345842E+00  0.41249297E+00  0.41153256E+00  0.41057693E+00  0.40962583E+00
  0.40867900E+00  0.40773618E+00  0.40679711E+00  0.40586154E+00  0.40492919E+00
  0.40399984E+00  0.40307322E+00  0.40214910E+00  0.40122725E+00  0.40030744E+00
  0.39938947E+00  0.39847313E+00  0.39755825E+00  0.39664465E+00  0.39573220E+00
  0.39482076E+00  0.39391023E+00  0.39300050E+00  0.39209151E+00  0.39118319E+00
  0.39027551E+00  0.38936842E+00  0.38846193E+00  0.38755603E+00  0.38665076E+00
  0.38574614E+00  0.38484225E+00  0.38393914E+00  0.38303692E+00  0.38213569E+00
  0.38123557E+00  0.38033669E+00  0.37943922E+00  0.37854328E+00  0.37764906E+00
  0.37675672E+00  0.37586642E+00  0.37497834E+00  0.37409267E+00  0.37320957E+00
  0.37232923E+00  0.37145182E+00  0.37057753E+00  0.36970653E+00  0.36883898E+00
  0.36797507E+00  0.36711494E+00  0.36625874E+00  0.36540662E+00  0.36455870E+00
  0.36371509E+00  0.36287590E+00  0.36204121E+00  0.36121110E+00  0.36038562E+00
  0.35956484E+00  0.35874879E+00  0.35793749E+00  0.35713096E+00  0.35632920E+00
  0.35553219E+00  0.35473990E+00  0.35395229E+00  0.35316930E+00  0.35239087E+00
  0.35161689E+00  0.35084727E+00  0.35008190E+00  0.34932066E+00  0.34856342E+00
  0.34781003E+00  0.34706037E+00  0.34631427E+00  0.34557160E+00  0.34483218E+00
  0.34409587E+00  0.34336250E+00  0.34263191E+00  0.34190392E+00  0.34117839E+00
  0.34045513E+00  0.33973399E+00  0.33901481E+00  0.33829744E+00  0.33758173E+00
  0.33686755E+00  0.33615477E+00  0.33544327E+00  0.33473293E+00  0.33402367E+00
  0.33331538E+00  0.33260798E+00  0.33190139E+00  0.33119556E+00  0.33049042E+00
  0.32978593E+00  0.32908206E+00  0.32837879E+00  0.32767611E+00  0.32697403E+00
  0.32627256E+00  0.32557175E+00  0.32487162E+00  0.32417224E+00  0.32347366E+00
  0.32277597E+00  0.32207923E+00  0.32138352E+00  0.32068895E+00  0.31999559E+00
  0.31930356E+00  0.31861295E+00  0.31792387E+00  0.31723643E+00  0.31655076E+00
  0.31586696E+00  0.31518516E+00  0.31450546E+00  0.31382800E+00  0.31315287E+00
  0.31248019E+00  0.31181005E+00  0.31114257E+00  0.31047782E+00  0.30981590E+00
  0.30915689E+00  0.30850086E+00  0.30784788E+00  0.30719802E+00  0.30655133E+00
  0.30590785E+00  0.30526764E+00  0.30463072E+00  0.30399711E+00  0.30336681E+00
  0.30273984E+00  0.30211617E+00  0.30149577E+00  0.30087863E+00  0.30026469E+00
  0.29965390E+00  0.29904620E+00  0.29844154E+00  0.29783983E+00  0.29724100E+00
  0.29664498E+00  0.29605167E+00  0.29546097E+00  0.29487280E+00  0.29428704E+00
  0.29370359E+00  0.29312234E+00  0.29254317E+00  0.29196597E+00  0.29139063E+00
  0.29081704E+00  0.29024508E+00  0.28967466E+00  0.28910566E+00  0.28853800E+00
  0.28797156E+00  0.28740627E+00  0.28684204E+00  0.28627877E+00  0.28571639E+00
 gradient corrections used for XC
           5
 core charge-density (partial)
  0.44635245E+01  0.44621935E+01  0.44582027E+01  0.44515590E+01  0.44422738E+01
  0.44303630E+01  0.44158470E+01  0.43987505E+01  0.43791027E+01  0.43569370E+01
  0.43322908E+01  0.43052057E+01  0.42757273E+01  0.42439049E+01  0.42097915E+01
  0.41734436E+01  0.41349209E+01  0.40942868E+01  0.40516071E+01  0.40069508E+01
  0.39603897E+01  0.39119976E+01  0.38618511E+01  0.38100285E+01  0.37566101E+01
  0.37016780E+01  0.36453156E+01  0.35876075E+01  0.35286397E+01  0.34684986E+01
  0.34072715E+01  0.33450461E+01  0.32819104E+01  0.32179522E+01  0.31532594E+01
  0.30879195E+01  0.30220193E+01  0.29556450E+01  0.28888820E+01  0.28218146E+01
  0.27545257E+01  0.26870971E+01  0.26196088E+01  0.25521395E+01  0.24847657E+01
  0.24175624E+01  0.23506022E+01  0.22839558E+01  0.22176916E+01  0.21518756E+01
  0.20865715E+01  0.20218406E+01  0.19577414E+01  0.18943300E+01  0.18316597E+01
  0.17697814E+01  0.17087430E+01  0.16485898E+01  0.15893642E+01  0.15311060E+01
  0.14738522E+01  0.14176369E+01  0.13624918E+01  0.13084454E+01  0.12555238E+01
  0.12037504E+01  0.11531460E+01  0.11037287E+01  0.10555141E+01  0.10085153E+01
  0.96274313E+00  0.91820579E+00  0.87490934E+00  0.83285756E+00  0.79205207E+00
  0.75249238E+00  0.71417601E+00  0.67709852E+00  0.64125362E+00  0.60663324E+00
  0.57322761E+00  0.54102537E+00  0.51001361E+00  0.48017800E+00  0.45150283E+00
  0.42397114E+00  0.39756477E+00  0.37226447E+00  0.34804997E+00  0.32490004E+00
  0.30279263E+00  0.28170490E+00  0.26161330E+00  0.24249370E+00  0.22432138E+00
  0.20707118E+00  0.19071754E+00  0.17523457E+00  0.16059611E+00  0.14677582E+00
  0.13374720E+00  0.12148372E+00  0.10995879E+00  0.99145884E-01  0.89018575E-01
  0.79550570E-01  0.70715768E-01  0.62488309E-01  0.54842610E-01  0.47753407E-01
  0.41195797E-01  0.35145265E-01  0.29577723E-01  0.24469534E-01  0.19797548E-01
  0.15539115E-01  0.11672120E-01  0.81749941E-02  0.50267366E-02  0.22069302E-02
 -0.30424553E-03 -0.25260028E-02 -0.44769358E-02 -0.61750134E-02 -0.76375732E-02
 -0.88813179E-02 -0.99223128E-02 -0.10775986E-01 -0.11457128E-01 -0.11979897E-01
 -0.12357819E-01 -0.12603797E-01 -0.12730115E-01 -0.12748448E-01 -0.12669868E-01
 -0.12504857E-01 -0.12263314E-01 -0.11954572E-01 -0.11587406E-01 -0.11170048E-01
 -0.10710202E-01 -0.10215055E-01 -0.96912989E-02 -0.91451367E-02 -0.85823060E-02
 -0.80080918E-02 -0.74273436E-02 -0.68444922E-02 -0.62635665E-02 -0.56882103E-02
 -0.51216995E-02 -0.45669588E-02 -0.40265791E-02 -0.35028337E-02 -0.29976956E-02
 -0.25128537E-02 -0.20497290E-02 -0.16094913E-02 -0.11930741E-02 -0.80119081E-03
 -0.43434970E-03 -0.92868533E-04  0.22311087E-03  0.51360864E-03  0.77879331E-03
  0.10189686E-02  0.12345608E-02  0.14261065E-02  0.15942407E-02  0.17396858E-02
  0.18632406E-02  0.19657700E-02  0.20481952E-02  0.21114847E-02  0.21566450E-02
  0.21847126E-02  0.21967461E-02  0.21938189E-02  0.21770123E-02  0.21474090E-02
  0.21060875E-02  0.20541165E-02  0.19925496E-02  0.19224214E-02  0.18447425E-02
  0.17604966E-02  0.16706366E-02  0.15760818E-02  0.14777155E-02  0.13763825E-02
  0.12728876E-02  0.11679935E-02  0.10624203E-02  0.95684393E-03  0.85189564E-03
  0.74816183E-03  0.64618375E-03  0.54645756E-03  0.44943471E-03  0.35552241E-03
  0.26508432E-03  0.17844144E-03  0.95873117E-04  0.17618203E-04 -0.56123642E-04
 -0.12519055E-03 -0.18945695E-03 -0.24883197E-03 -0.30325777E-03 -0.35270781E-03
 -0.39718510E-03 -0.43672037E-03 -0.47137022E-03 -0.50121526E-03 -0.52635827E-03
 -0.54692228E-03 -0.56304876E-03 -0.57489579E-03 -0.58263618E-03 -0.58645576E-03
 -0.58655159E-03 -0.58313028E-03 -0.57640637E-03 -0.56660067E-03 -0.55393881E-03
 -0.53864970E-03 -0.52096417E-03 -0.50111361E-03 -0.47932874E-03 -0.45583841E-03
 -0.43086845E-03 -0.40464070E-03 -0.37737201E-03 -0.34927338E-03 -0.32054913E-03
 -0.29139620E-03 -0.26200351E-03 -0.23255136E-03 -0.20321093E-03 -0.17414388E-03
 -0.14550198E-03 -0.11742682E-03 -0.90049588E-04 -0.63490936E-04 -0.37860855E-04
 -0.13258660E-04  0.10226997E-04  0.32518051E-04  0.53546900E-04  0.73256239E-04
  0.91598839E-04  0.10853730E-03  0.12404375E-03  0.13809953E-03  0.15069483E-03
  0.16182833E-03  0.17150672E-03  0.17974439E-03  0.18656286E-03  0.19199042E-03
  0.19606157E-03  0.19881662E-03  0.20030114E-03  0.20056550E-03  0.19966435E-03
  0.19765619E-03  0.19460278E-03  0.19056878E-03  0.18562117E-03  0.17982886E-03
  0.17326218E-03  0.16599251E-03  0.15809180E-03  0.14963219E-03  0.14068560E-03
  0.13132341E-03  0.12161602E-03  0.11163264E-03  0.10144087E-03  0.91106483E-04
  0.80693123E-04  0.70262091E-04  0.59872105E-04  0.49579116E-04  0.39436129E-04
  0.29493053E-04  0.19796571E-04  0.10390040E-04  0.13133969E-05 -0.73968976E-05
 -0.15707906E-04 -0.23590237E-04 -0.31018048E-04 -0.37969032E-04 -0.44424389E-04
 -0.50368771E-04 -0.55790225E-04 -0.60680112E-04 -0.65033012E-04 -0.68846626E-04
 -0.72121653E-04 -0.74861666E-04 -0.77072976E-04 -0.78764487E-04 -0.79947542E-04
 -0.80635767E-04 -0.80844907E-04 -0.80592657E-04 -0.79898492E-04 -0.78783492E-04
 -0.77270169E-04 -0.75382292E-04 -0.73144712E-04 -0.70583189E-04 -0.67724219E-04
 -0.64594872E-04 -0.61222621E-04 -0.57635185E-04 -0.53860374E-04 -0.49925940E-04
 -0.45859432E-04 -0.41688062E-04 -0.37438572E-04 -0.33137111E-04 -0.28809127E-04
 -0.24479251E-04 -0.20171205E-04 -0.15907710E-04 -0.11710402E-04 -0.75997637E-05
 -0.35950558E-05  0.28573641E-06  0.40259505E-05  0.76102859E-05  0.11024834E-04
  0.14257098E-04  0.17296012E-04  0.20131940E-04  0.22756681E-04  0.25163455E-04
  0.27346889E-04  0.29302997E-04  0.31029148E-04  0.32524031E-04  0.33787617E-04
  0.34821114E-04  0.35626914E-04  0.36208541E-04  0.36570591E-04  0.36718673E-04
  0.36659342E-04  0.36400030E-04  0.35948982E-04  0.35315178E-04  0.34508266E-04
  0.33538486E-04  0.32416597E-04  0.31153801E-04  0.29761671E-04  0.28252078E-04
  0.26637117E-04  0.24929038E-04  0.23140175E-04  0.21282881E-04  0.19369460E-04
  0.17412105E-04  0.15422841E-04  0.13413461E-04  0.11395481E-04  0.93800794E-05
  0.73780573E-05  0.53997903E-05  0.34551897E-05  0.15536654E-05 -0.29590682E-06
 -0.20852143E-05 -0.38065328E-05 -0.54527476E-05 -0.70173711E-05 -0.84945568E-05
 -0.98791089E-05 -0.11166489E-04 -0.12352819E-04 -0.13434878E-04 -0.14410104E-04
 -0.15276579E-04 -0.16033023E-04 -0.16678783E-04 -0.17213809E-04 -0.17638644E-04
 -0.17954396E-04 -0.18162719E-04 -0.18265784E-04 -0.18266255E-04 -0.18167256E-04
 -0.17972345E-04 -0.17685477E-04 -0.17310975E-04 -0.16853497E-04 -0.16317995E-04
 -0.15709688E-04 -0.15034023E-04 -0.14296637E-04 -0.13503328E-04 -0.12660014E-04
 -0.11772703E-04 -0.10847456E-04 -0.98903543E-05 -0.89074679E-05 -0.79048237E-05
 -0.68883754E-05 -0.58639745E-05 -0.48373428E-05 -0.38140465E-05 -0.27994711E-05
 -0.17987996E-05 -0.81699029E-06  0.14124180E-06  0.10714428E-05  0.19694357E-05
  0.28313339E-05  0.36535534E-05  0.44328225E-05  0.51661902E-05  0.58510322E-05
  0.64850554E-05  0.70663001E-05  0.75931414E-05  0.80642874E-05  0.84787771E-05
  0.88359757E-05  0.91355690E-05  0.93775558E-05  0.95622392E-05  0.96902167E-05
  0.97623686E-05  0.97798454E-05  0.97440548E-05  0.96566468E-05  0.95194986E-05
  0.93346984E-05  0.91045288E-05  0.88314495E-05  0.85180796E-05  0.81671797E-05
  0.77816334E-05  0.73644293E-05  0.69186420E-05  0.64474143E-05  0.59539387E-05
  0.54414393E-05  0.49131544E-05  0.43723190E-05  0.38221480E-05  0.32658202E-05
  0.27064627E-05  0.21471355E-05  0.15908178E-05  0.10403944E-05  0.49864325E-06
 -0.31776316E-07 -0.54833432E-06 -0.10486399E-05 -0.15304502E-05 -0.19916780E-05
 -0.24303989E-05 -0.28448568E-05 -0.32334688E-05 -0.35948291E-05 -0.39277114E-05
 -0.42310712E-05 -0.45040459E-05 -0.47459554E-05 -0.49563002E-05 -0.51347600E-05
 -0.52811905E-05 -0.53956197E-05 -0.54782434E-05 -0.55294200E-05 -0.55496643E-05
 -0.55396413E-05 -0.55001585E-05 -0.54321582E-05 -0.53367096E-05 -0.52149995E-05
 -0.50683234E-05 -0.48980764E-05 -0.47057427E-05 -0.44928865E-05 -0.42611410E-05
 -0.40121989E-05 -0.37478019E-05 -0.34697301E-05 -0.31797923E-05 -0.28798154E-05
 -0.25716348E-05 -0.22570843E-05 -0.19379868E-05 -0.16161450E-05 -0.12933327E-05
 -0.97128586E-06 -0.65169464E-06 -0.33619585E-06 -0.26365495E-07  0.27628785E-06
  0.57032937E-06  0.85440366E-06  0.11272399E-05  0.13876566E-05  0.16345654E-05
  0.18669747E-05  0.20839924E-05  0.22848285E-05  0.24687964E-05  0.26353143E-05
  0.27839057E-05  0.29141996E-05  0.30259295E-05  0.31189329E-05  0.31931493E-05
  0.32486185E-05  0.32854777E-05  0.33039588E-05  0.33043849E-05  0.32871665E-05
  0.32527975E-05  0.32018504E-05  0.31349719E-05  0.30528774E-05  0.29563463E-05
  0.28462156E-05  0.27233753E-05  0.25887617E-05  0.24433518E-05  0.22881573E-05
  0.21242186E-05  0.19525985E-05  0.17743765E-05  0.15906424E-05  0.14024909E-05
  0.12110151E-05  0.10173016E-05  0.82242433E-06  0.62743980E-06  0.43338152E-06
  0.24125538E-06  0.52034961E-07 -0.13334284E-06 -0.31398185E-06 -0.48903042E-06
 -0.65768487E-06 -0.81919262E-06 -0.97285500E-06 -0.11180297E-05 -0.12541330E-05
 -0.13806412E-05 -0.14970925E-05 -0.16030878E-05 -0.16982913E-05 -0.17824313E-05
 -0.18552999E-05 -0.19167525E-05 -0.19667080E-05 -0.20051469E-05 -0.20321107E-05
 -0.20477003E-05 -0.20520740E-05 -0.20454456E-05 -0.20280820E-05 -0.20003008E-05
 -0.19624678E-05 -0.19149933E-05 -0.18583300E-05 -0.17929691E-05 -0.17194370E-05
 -0.16382922E-05 -0.15501212E-05 -0.14555353E-05 -0.13551667E-05 -0.12496646E-05
 -0.11396919E-05 -0.10259211E-05 -0.90903076E-06 -0.78970173E-06 -0.66861369E-06
 -0.54644155E-06 -0.42385206E-06 -0.30150050E-06 -0.18002749E-06 -0.60055992E-07
  0.57811614E-07  0.17299622E-06  0.28494455E-06  0.39313150E-06  0.49706231E-06
  0.59627451E-06  0.69033970E-06  0.77886508E-06  0.86149477E-06  0.93791093E-06
  0.10078346E-05  0.10710266E-05  0.11272875E-05  0.11764584E-05  0.12184207E-05
  0.12530958E-05  0.12804448E-05  0.13004682E-05  0.13132047E-05  0.13187304E-05
  0.13171577E-05  0.13086340E-05  0.12933402E-05  0.12714891E-05  0.12433237E-05
  0.12091154E-05  0.11691619E-05  0.11237850E-05  0.10733290E-05  0.10181579E-05
  0.95865340E-06  0.89521247E-06  0.82824506E-06  0.75817168E-06  0.68542101E-06
  0.61042750E-06  0.53362900E-06  0.45546444E-06  0.37637149E-06  0.29678433E-06
  0.21713143E-06  0.13783348E-06  0.59301276E-07 -0.18066171E-07 -0.93883515E-07
 -0.16778082E-06 -0.23940518E-06 -0.30842226E-06 -0.37451767E-06 -0.43739821E-06
 -0.49679302E-06 -0.55245458E-06 -0.60415953E-06 -0.65170939E-06 -0.69493116E-06
 -0.73367769E-06 -0.76782800E-06 -0.79728743E-06 -0.82198760E-06 -0.84188633E-06
 -0.85696734E-06 -0.86723987E-06 -0.87273816E-06 -0.87352080E-06 -0.86966999E-06
 -0.86129067E-06 -0.84850956E-06 -0.83147409E-06 -0.81035128E-06 -0.78532648E-06
 -0.75660211E-06 -0.72439624E-06 -0.68894122E-06 -0.65048220E-06 -0.60927559E-06
 -0.56558758E-06 -0.51969252E-06 -0.47187137E-06 -0.42241012E-06 -0.37159822E-06
 -0.31972697E-06 -0.26708804E-06 -0.21397186E-06 -0.16066620E-06 -0.10745469E-06
 -0.54615430E-07 -0.24196110E-08  0.48869737E-07  0.98998987E-07  0.14772507E-06
  0.19481655E-06  0.24005461E-06  0.28323400E-06  0.32416384E-06  0.36266836E-06
  0.39858756E-06  0.43177779E-06  0.46211214E-06  0.48948089E-06  0.51379172E-06
  0.53496993E-06  0.55295849E-06  0.56771804E-06  0.57922680E-06  0.58748037E-06
  0.59249143E-06  0.59428943E-06  0.59292009E-06  0.58844493E-06  0.58094064E-06
  0.57049843E-06  0.55722335E-06  0.54123341E-06  0.52265886E-06  0.50164119E-06
  0.47833231E-06  0.45289349E-06  0.42549441E-06  0.39631212E-06  0.36553001E-06
  0.33333672E-06  0.29992509E-06  0.26549108E-06  0.23023269E-06  0.19434891E-06
  0.15803866E-06  0.12149973E-06  0.84927836E-07  0.48515561E-07  0.12451452E-07
 -0.23080911E-07 -0.57903783E-07 -0.91846084E-07 -0.12474418E-06 -0.15644260E-06
 -0.18679473E-06 -0.21566341E-06 -0.24292151E-06 -0.26845240E-06 -0.29215041E-06
 -0.31392119E-06 -0.33368201E-06 -0.35136200E-06 -0.36690233E-06 -0.38025632E-06
 -0.39138948E-06 -0.40027949E-06 -0.40691611E-06 -0.41130106E-06 -0.41344779E-06
 -0.41338124E-06 -0.41113750E-06 -0.40676347E-06 -0.40031641E-06 -0.39186353E-06
 -0.38148139E-06 -0.36925543E-06 -0.35527935E-06 -0.33965449E-06 -0.32248920E-06
 -0.30389811E-06 -0.28400151E-06 -0.26292457E-06 -0.24079663E-06 -0.21775049E-06
 -0.19392161E-06 -0.16944740E-06 -0.14446647E-06 -0.11911788E-06 -0.93540409E-07
 -0.67871841E-07 -0.42248267E-07 -0.16803399E-07  0.83320892E-08  0.33031191E-07
  0.57171174E-07  0.80634150E-07  0.10330761E-06  0.12508493E-06  0.14586584E-06
  0.16555682E-06  0.18407152E-06  0.20133107E-06  0.21726438E-06  0.23180839E-06
  0.24490829E-06  0.25651764E-06  0.26659852E-06  0.27512158E-06  0.28206606E-06
  0.28741977E-06  0.29117900E-06  0.29334845E-06  0.29394104E-06  0.29297773E-06
  0.29048731E-06  0.28650609E-06  0.28107760E-06  0.27425229E-06  0.26608714E-06
  0.25664526E-06  0.24599547E-06  0.23421185E-06  0.22137331E-06  0.20756304E-06
  0.19286807E-06  0.17737876E-06  0.16118822E-06  0.14439185E-06  0.12708678E-06
  0.10937132E-06  0.91344486E-07  0.73105406E-07  0.54752853E-07  0.36384717E-07
  0.18097507E-07 -0.14123956E-10 -0.17857849E-07 -0.35344109E-07 -0.52386544E-07
 -0.68902388E-07 -0.84812850E-07 -0.10004347E-06 -0.11452442E-06 -0.12819085E-06
 -0.14098308E-06 -0.15284691E-06 -0.16373375E-06 -0.17360085E-06 -0.18241141E-06
 -0.19013466E-06 -0.19674600E-06 -0.20222697E-06 -0.20656528E-06 -0.20975480E-06
 -0.21179548E-06 -0.21269328E-06 -0.21246003E-06 -0.21111330E-06 -0.20867622E-06
 -0.20517729E-06 -0.20065012E-06 -0.19513324E-06 -0.18866977E-06 -0.18130715E-06
 -0.17309685E-06 -0.16409401E-06 -0.15435713E-06 -0.14394772E-06 -0.13292989E-06
 -0.12137003E-06 -0.10933642E-06 -0.96898822E-07 -0.84128137E-07 -0.71095983E-07
 -0.57874330E-07 -0.44535119E-07 -0.31149883E-07 -0.17789387E-07 -0.45232647E-08
  0.85803248E-08  0.21455032E-07  0.34036635E-07  0.46263349E-07  0.58076106E-07
  0.69418830E-07  0.80238686E-07  0.90486306E-07  0.10011600E-06  0.10908595E-06
  0.11735835E-06  0.12489958E-06  0.13168029E-06  0.13767552E-06  0.14286476E-06
  0.14723198E-06  0.15076567E-06  0.15345883E-06  0.15530895E-06  0.15631795E-06
  0.15649212E-06  0.15584202E-06  0.15438236E-06  0.15213189E-06  0.14911323E-06
  0.14535268E-06  0.14088007E-06  0.13572854E-06  0.12993432E-06  0.12353650E-06
  0.11657678E-06  0.10909924E-06  0.10115006E-06  0.92777243E-07  0.84030371E-07
  0.74960294E-07  0.65618866E-07  0.56058654E-07  0.46332660E-07  0.36494033E-07
  0.26595796E-07  0.16690570E-07  0.68303044E-08 -0.29339849E-08 -0.12552466E-07
 -0.21976737E-07 -0.31160055E-07 -0.40057564E-07 -0.48626496E-07 -0.56826369E-07
 -0.64619167E-07 -0.71969506E-07 -0.78844781E-07 -0.85215301E-07 -0.91054401E-07
 -0.96338547E-07 -0.10104741E-06 -0.10516393E-06 -0.10867438E-06 -0.11156836E-06
 -0.11383882E-06 -0.11548209E-06 -0.11649778E-06 -0.11688881E-06 -0.11666132E-06
 -0.11582457E-06 -0.11439093E-06 -0.11237567E-06 -0.10979692E-06 -0.10667554E-06
 -0.10303490E-06 -0.98900808E-07 -0.94301310E-07 -0.89266508E-07 -0.83828391E-07
 -0.78020636E-07 -0.71878413E-07 -0.65438185E-07 -0.58737497E-07 -0.51814770E-07
 -0.44709088E-07 -0.37459986E-07 -0.30107240E-07 -0.22690656E-07 -0.15249860E-07
 -0.78240985E-08 -0.45203515E-09  0.68284405E-08  0.13980402E-07  0.20968064E-07
  0.27756956E-07  0.34314085E-07  0.40608085E-07  0.46609365E-07  0.52290236E-07
  0.57625032E-07  0.62590220E-07  0.67164492E-07  0.71328852E-07  0.75066681E-07
  0.78363797E-07  0.81208497E-07  0.83591586E-07  0.85506393E-07  0.86948776E-07
  0.87917109E-07  0.88412263E-07  0.88437564E-07  0.87998750E-07  0.87103910E-07
  0.85763411E-07  0.83989816E-07  0.81797792E-07  0.79204007E-07  0.76227019E-07
  0.72887153E-07  0.69206378E-07  0.65208167E-07  0.60917362E-07  0.56360021E-07
  0.51563274E-07  0.46555162E-07  0.41364486E-07  0.36020643E-07  0.30553468E-07
  0.24993073E-07  0.19369687E-07  0.13713495E-07  0.80544833E-08  0.24222878E-08
 -0.31539600E-08 -0.86457760E-08 -0.14025464E-07 -0.19266253E-07 -0.24342419E-07
 -0.29229414E-07 -0.33903972E-07 -0.38344223E-07 -0.42529780E-07 -0.46441835E-07
 -0.50063234E-07 -0.53378547E-07 -0.56374129E-07 -0.59038167E-07 -0.61360720E-07
 -0.63333750E-07 -0.64951138E-07 -0.66208695E-07 -0.67104161E-07 -0.67637190E-07
 kinetic energy density (partial)
  0.65623563E+03  0.65604488E+03  0.65547296E+03  0.65452081E+03  0.65319002E+03
  0.65148277E+03  0.64940189E+03  0.64695081E+03  0.64413357E+03  0.64095478E+03
  0.63741964E+03  0.63353393E+03  0.62930394E+03  0.62473653E+03  0.61983905E+03
  0.61461934E+03  0.60908573E+03  0.60324700E+03  0.59711233E+03  0.59069133E+03
  0.58399398E+03  0.57703063E+03  0.56981192E+03  0.56234882E+03  0.55465257E+03
  0.54673466E+03  0.53860677E+03  0.53028080E+03  0.52176880E+03  0.51308297E+03
  0.50423557E+03  0.49523900E+03  0.48610566E+03  0.47684799E+03  0.46747844E+03
  0.45800941E+03  0.44845325E+03  0.43882224E+03  0.42912853E+03  0.41938417E+03
  0.40960103E+03  0.39979083E+03  0.38996507E+03  0.38013507E+03  0.37031188E+03
  0.36050633E+03  0.35072895E+03  0.34099001E+03  0.33129946E+03  0.32166697E+03
  0.31210184E+03  0.30261307E+03  0.29320930E+03  0.28389882E+03  0.27468954E+03
  0.26558902E+03  0.25660442E+03  0.24774256E+03  0.23900983E+03  0.23041226E+03
  0.22195549E+03  0.21364477E+03  0.20548495E+03  0.19748052E+03  0.18963556E+03
  0.18195379E+03  0.17443854E+03  0.16709278E+03  0.15991910E+03  0.15291974E+03
  0.14609660E+03  0.13945120E+03  0.13298475E+03  0.12669814E+03  0.12059193E+03
  0.11466635E+03  0.10892137E+03  0.10335664E+03  0.97971551E+02  0.92765221E+02
  0.87736513E+02  0.82884045E+02  0.78206205E+02  0.73701159E+02  0.69366865E+02
  0.65201084E+02  0.61201394E+02  0.57365197E+02  0.53689736E+02  0.50172105E+02
  0.46809261E+02  0.43598032E+02  0.40535137E+02  0.37617186E+02  0.34840700E+02
  0.32202118E+02  0.29697808E+02  0.27324079E+02  0.25077186E+02  0.22953346E+02
  0.20948745E+02  0.19059544E+02  0.17281894E+02  0.15611939E+02  0.14045826E+02
  0.12579714E+02  0.11209780E+02  0.99322265E+01  0.87432868E+01  0.76392341E+01
  0.66163853E+01  0.56711073E+01  0.47998220E+01  0.39990114E+01  0.32652219E+01
  0.25950685E+01  0.19852386E+01  0.14324955E+01  0.93368155E+00  0.48572057E+00
  0.85620753E-01 -0.26952342E+00 -0.58252932E+00 -0.85612463E+00 -0.10929461E+01
 -0.12955387E+01 -0.14663546E+01 -0.16077531E+01 -0.17220002E+01 -0.18112690E+01
 -0.18776393E+01 -0.19230988E+01 -0.19495433E+01 -0.19587781E+01 -0.19525182E+01
 -0.19323906E+01 -0.18999349E+01 -0.18566050E+01 -0.18037711E+01 -0.17427211E+01
 -0.16746627E+01 -0.16007254E+01 -0.15219626E+01 -0.14393537E+01 -0.13538065E+01
 -0.12661595E+01 -0.11771842E+01 -0.10875875E+01 -0.99801423E+00 -0.90904968E+00
 -0.82122198E+00 -0.73500469E+00 -0.65081929E+00 -0.56903769E+00 -0.48998475E+00
 -0.41394076E+00 -0.34114387E+00 -0.27179256E+00 -0.20604802E+00 -0.14403653E+00
 -0.85851737E-01 -0.31556939E-01  0.18812687E-01  0.65247947E-01  0.10776352E+00
  0.14639593E+00  0.18120157E+00  0.21225479E+00  0.23964607E+00  0.26348027E+00
  0.28387490E+00  0.30095854E+00  0.31486924E+00  0.32575313E+00  0.33376295E+00
  0.33905676E+00  0.34179670E+00  0.34214779E+00  0.34027686E+00  0.33635151E+00
  0.33053917E+00  0.32300617E+00  0.31391700E+00  0.30343351E+00  0.29171424E+00
  0.27891383E+00  0.26518243E+00  0.25066523E+00  0.23550203E+00  0.21982686E+00
  0.20376766E+00  0.18744599E+00  0.17097684E+00  0.15446845E+00  0.13802216E+00
  0.12173236E+00  0.10568640E+00  0.89964645E-01  0.74640437E-01  0.59780202E-01
  0.45443525E-01  0.31683270E-01  0.18545726E-01  0.60707793E-02 -0.57079011E-02
 -0.16762651E-01 -0.27071585E-01 -0.36618357E-01 -0.45391907E-01 -0.53386192E-01
 -0.60599918E-01 -0.67036257E-01 -0.72702561E-01 -0.77610071E-01 -0.81773630E-01
 -0.85211382E-01 -0.87944491E-01 -0.89996841E-01 -0.91394756E-01 -0.92166716E-01
 -0.92343081E-01 -0.91955821E-01 -0.91038251E-01 -0.89624783E-01 -0.87750673E-01
 -0.85451793E-01 -0.82764399E-01 -0.79724919E-01 -0.76369751E-01 -0.72735069E-01
 -0.68856641E-01 -0.64769664E-01 -0.60508606E-01 -0.56107062E-01 -0.51597622E-01
 -0.47011753E-01 -0.42379688E-01 -0.37730336E-01 -0.33091191E-01 -0.28488267E-01
 -0.23946035E-01 -0.19487371E-01 -0.15133520E-01 -0.10904064E-01 -0.68169091E-02
 -0.28882695E-02  0.86732788E-03  0.44370370E-02  0.78096754E-02  0.10975700E-01
  0.13927177E-01  0.16657740E-01  0.19162552E-01  0.21438250E-01  0.23482894E-01
  0.25295906E-01  0.26878005E-01  0.28231145E-01  0.29358441E-01  0.30264097E-01
  0.30953332E-01  0.31432306E-01  0.31708039E-01  0.31788334E-01  0.31681703E-01
  0.31397281E-01  0.30944756E-01  0.30334286E-01  0.29576428E-01  0.28682060E-01
  0.27662311E-01  0.26528491E-01  0.25292020E-01  0.23964364E-01  0.22556976E-01
  0.21081228E-01  0.19548362E-01  0.17969432E-01  0.16355258E-01  0.14716372E-01
  0.13062984E-01  0.11404935E-01  0.97516640E-02  0.81121775E-02  0.64950175E-02
  0.49082382E-02  0.33593843E-02  0.18554729E-02  0.40297951E-03 -0.99217357E-03
 -0.23246245E-02 -0.35895766E-02 -0.47827999E-02 -0.59006294E-02 -0.69399606E-02
 -0.78982427E-02 -0.87734691E-02 -0.95641649E-02 -0.10269373E-01 -0.10888638E-01
 -0.11421987E-01 -0.11869912E-01 -0.12233345E-01 -0.12513637E-01 -0.12712537E-01
 -0.12832159E-01 -0.12874963E-01 -0.12843728E-01 -0.12741518E-01 -0.12571663E-01
 -0.12337726E-01 -0.12043473E-01 -0.11692852E-01 -0.11289960E-01 -0.10839015E-01
 -0.10344333E-01 -0.98102987E-02 -0.92413392E-02 -0.86419012E-02 -0.80164255E-02
 -0.73693242E-02 -0.67049582E-02 -0.60276168E-02 -0.53414973E-02 -0.46506869E-02
 -0.39591447E-02 -0.32706864E-02 -0.25889689E-02 -0.19174776E-02 -0.12595140E-02
 -0.61818560E-03  0.36037596E-05  0.60316128E-03  0.11780117E-02  0.17259026E-02
  0.22448074E-02  0.27329287E-02  0.31886988E-02  0.36107797E-02  0.39980620E-02
  0.43496623E-02  0.46649200E-02  0.49433926E-02  0.51848503E-02  0.53892696E-02
  0.55568262E-02  0.56878870E-02  0.57830014E-02  0.58428919E-02  0.58684446E-02
  0.58606986E-02  0.58208349E-02  0.57501659E-02  0.56501235E-02  0.55222478E-02
  0.53681747E-02  0.51896248E-02  0.49883908E-02  0.47663261E-02  0.45253328E-02
  0.42673500E-02  0.39943425E-02  0.37082894E-02  0.34111737E-02  0.31049712E-02
  0.27916407E-02  0.24731143E-02  0.21512880E-02  0.18280131E-02  0.15050876E-02
  0.11842491E-02  0.86716729E-03  0.55543737E-03  0.25057434E-03 -0.45992446E-04
 -0.33292401E-03 -0.60897580E-03 -0.87300121E-03 -0.11239544E-02 -0.13608925E-02
 -0.15829775E-02 -0.17894768E-02 -0.19797643E-02 -0.21533197E-02 -0.23097285E-02
 -0.24486802E-02 -0.25699670E-02 -0.26734818E-02 -0.27592150E-02 -0.28272524E-02
 -0.28777709E-02 -0.29110352E-02 -0.29273938E-02 -0.29272740E-02 -0.29111779E-02
 -0.28796772E-02 -0.28334079E-02 -0.27730651E-02 -0.26993977E-02 -0.26132027E-02
 -0.25153196E-02 -0.24066247E-02 -0.22880253E-02 -0.21604544E-02 -0.20248643E-02
 -0.18822219E-02 -0.17335026E-02 -0.15796850E-02 -0.14217461E-02 -0.12606557E-02
 -0.10973718E-02 -0.93283592E-03 -0.76796862E-03 -0.60366533E-03 -0.44079235E-03
 -0.28018318E-03 -0.12263516E-03  0.31093735E-04  0.18028764E-03  0.32427537E-03
  0.46243265E-03  0.59418400E-03  0.71900437E-03  0.83642041E-03  0.94601153E-03
  0.10474105E-02  0.11403040E-02  0.12244325E-02  0.12995904E-02  0.13656252E-02
  0.14224372E-02  0.14699783E-02  0.15082508E-02  0.15373060E-02  0.15572426E-02
  0.15682051E-02  0.15703811E-02  0.15639998E-02  0.15493295E-02  0.15266747E-02
  0.14963740E-02  0.14587972E-02  0.14143425E-02  0.13634337E-02  0.13065173E-02
  0.12440592E-02  0.11765424E-02  0.11044635E-02  0.10283296E-02  0.94865614E-03
  0.86596308E-03  0.78077260E-03  0.69360616E-03  0.60498178E-03  0.51541143E-03
  0.42539856E-03  0.33543560E-03  0.24600177E-03  0.15756088E-03  0.70559294E-04
 -0.14575895E-04 -0.97438636E-04 -0.17764547E-03 -0.25483696E-03 -0.32867892E-03
 -0.39886353E-03 -0.46511025E-03 -0.52716656E-03 -0.58480860E-03 -0.63784157E-03
 -0.68609999E-03 -0.72944785E-03 -0.76777853E-03 -0.80101462E-03 -0.82910758E-03
 -0.85203726E-03 -0.86981127E-03 -0.88246426E-03 -0.89005704E-03 -0.89267559E-03
 -0.89043000E-03 -0.88345327E-03 -0.87190006E-03 -0.85594532E-03 -0.83578286E-03
 -0.81162392E-03 -0.78369556E-03 -0.75223912E-03 -0.71750863E-03 -0.67976911E-03
 -0.63929494E-03 -0.59636822E-03 -0.55127708E-03 -0.50431403E-03 -0.45577431E-03
 -0.40595432E-03 -0.35515001E-03 -0.30365535E-03 -0.25176086E-03 -0.19975214E-03
 -0.14790855E-03 -0.96501839E-04 -0.45794956E-04  0.39591325E-05  0.52518523E-04
  0.99653371E-04  0.14514681E-03  0.18879576E-03  0.23041168E-03  0.26982120E-03
  0.30686667E-03  0.34140659E-03  0.37331601E-03  0.40248675E-03  0.42882761E-03
  0.45226441E-03  0.47274001E-03  0.49021419E-03  0.50466349E-03  0.51608091E-03
  0.52447559E-03  0.52987238E-03  0.53231134E-03  0.53184720E-03  0.52854869E-03
  0.52249793E-03  0.51378963E-03  0.50253035E-03  0.48883764E-03  0.47283920E-03
  0.45467195E-03  0.43448116E-03  0.41241946E-03  0.38864586E-03  0.36332483E-03
  0.33662528E-03  0.30871959E-03  0.27978261E-03  0.24999075E-03  0.21952094E-03
  0.18854977E-03  0.15725253E-03  0.12580234E-03  0.94369300E-04  0.63119650E-04
  0.32215005E-04  0.18116062E-05 -0.27940376E-04 -0.56897493E-04 -0.84923616E-04
 -0.11189049E-03 -0.13767823E-03 -0.16217576E-03 -0.18528121E-03 -0.20690224E-03
 -0.22695630E-03 -0.24537091E-03 -0.26208372E-03 -0.27704272E-03 -0.29020620E-03
 -0.30154282E-03 -0.31103149E-03 -0.31866132E-03 -0.32443140E-03 -0.32835062E-03
 -0.33043743E-03 -0.33071949E-03 -0.32923340E-03 -0.32602425E-03 -0.32114525E-03
 -0.31465727E-03 -0.30662835E-03 -0.29713319E-03 -0.28625266E-03 -0.27407318E-03
 -0.26068623E-03 -0.24618771E-03 -0.23067735E-03 -0.21425816E-03 -0.19703575E-03
 -0.17911780E-03 -0.16061339E-03 -0.14163245E-03 -0.12228513E-03 -0.10268126E-03
 -0.82929752E-04 -0.63138060E-04 -0.43411653E-04 -0.23853503E-04 -0.45635989E-05
  0.14361517E-04  0.32829179E-04  0.50751004E-04  0.68043269E-04  0.84627247E-04
  0.10042952E-03  0.11538226E-03  0.12942347E-03  0.14249716E-03  0.15455357E-03
  0.16554928E-03  0.17544728E-03  0.18421709E-03  0.19183476E-03  0.19828284E-03
  0.20355041E-03  0.20763292E-03  0.21053216E-03  0.21225610E-03  0.21281871E-03
  0.21223978E-03  0.21054473E-03  0.20776430E-03  0.20393437E-03  0.19909560E-03
  0.19329316E-03  0.18657639E-03  0.17899849E-03  0.17061612E-03  0.16148910E-03
  0.15167995E-03  0.14125362E-03  0.13027700E-03  0.11881859E-03  0.10694812E-03
  0.94736122E-04  0.82253579E-04  0.69571530E-04  0.56760705E-04  0.43891160E-04
  0.31031923E-04  0.18250658E-04  0.56133304E-05 -0.68160972E-05 -0.18975965E-04
 -0.30807194E-04 -0.42253544E-04 -0.53261852E-04 -0.63782256E-04 -0.73768389E-04
 -0.83177558E-04 -0.91970894E-04 -0.10011349E-03 -0.10757449E-03 -0.11432722E-03
 -0.12034918E-03 -0.12562214E-03 -0.13013215E-03 -0.13386949E-03 -0.13682870E-03
 -0.13900849E-03 -0.14041169E-03 -0.14104513E-03 -0.14091957E-03 -0.14004956E-03
 -0.13845328E-03 -0.13615237E-03 -0.13317180E-03 -0.12953962E-03 -0.12528681E-03
 -0.12044703E-03 -0.11505641E-03 -0.10915331E-03 -0.10277809E-03 -0.95972849E-04
 -0.88781189E-04 -0.81247946E-04 -0.73418944E-04 -0.65340734E-04 -0.57060338E-04
 -0.48624998E-04 -0.40081921E-04 -0.31478039E-04 -0.22859764E-04 -0.14272758E-04
 -0.57617070E-05  0.26298926E-05  0.10859943E-04  0.18887938E-04  0.26675147E-04
  0.34184782E-04  0.41382163E-04  0.48234851E-04  0.54712789E-04  0.60788409E-04
  0.66436735E-04  0.71635467E-04  0.76365051E-04  0.80608735E-04  0.84352603E-04
  0.87585601E-04  0.90299547E-04  0.92489117E-04  0.94151831E-04  0.95288012E-04
  0.95900736E-04  0.95995772E-04  0.95581498E-04  0.94668823E-04  0.93271076E-04
  0.91403903E-04  0.89085138E-04  0.86334682E-04  0.83174356E-04  0.79627755E-04
  0.75720101E-04  0.71478075E-04  0.66929662E-04  0.62103975E-04  0.57031088E-04
  0.51741862E-04  0.46267774E-04  0.40640734E-04  0.34892921E-04  0.29056606E-04
  0.23163978E-04  0.17246988E-04  0.11337177E-04  0.54655198E-05 -0.33772139E-06
 -0.60431493E-05 -0.11622367E-04 -0.17048112E-04 -0.22294376E-04 -0.27336522E-04
 -0.32151392E-04 -0.36717398E-04 -0.41014613E-04 -0.45024848E-04 -0.48731713E-04
 -0.52120680E-04 -0.55179121E-04 -0.57896349E-04 -0.60263637E-04 -0.62274235E-04
 -0.63923370E-04 -0.65208242E-04 -0.66128003E-04 -0.66683731E-04 -0.66878392E-04
 -0.66716799E-04 -0.66205549E-04 -0.65352964E-04 -0.64169023E-04 -0.62665274E-04
 -0.60854759E-04 -0.58751915E-04 -0.56372476E-04 -0.53733376E-04 -0.50852636E-04
 -0.47749253E-04 -0.44443090E-04 -0.40954752E-04 -0.37305471E-04 -0.33516985E-04
 -0.29611415E-04 -0.25611143E-04 -0.21538695E-04 -0.17416617E-04 -0.13267360E-04
 -0.91131602E-05 -0.49759332E-05 -0.87715852E-06  0.31622224E-05  0.71219078E-05
  0.10982331E-04  0.14724753E-04  0.18331342E-04  0.21785260E-04  0.25070727E-04
  0.28173093E-04  0.31078894E-04  0.33775903E-04  0.36253177E-04  0.38501093E-04
  0.40511376E-04  0.42277124E-04  0.43792822E-04  0.45054349E-04  0.46058977E-04
  0.46805365E-04  0.47293545E-04  0.47524901E-04  0.47502138E-04  0.47229251E-04
  0.46711484E-04  0.45955282E-04  0.44968240E-04  0.43759047E-04  0.42337421E-04
  0.40714045E-04  0.38900498E-04  0.36909176E-04  0.34753222E-04  0.32446437E-04
  0.30003210E-04  0.27438421E-04  0.24767368E-04  0.22005672E-04  0.19169194E-04
  0.16273951E-04  0.13336026E-04  0.10371486E-04  0.73962978E-05  0.44262444E-05
  0.14768481E-05 -0.14367079E-05 -0.42996537E-05 -0.70977031E-05 -0.98171214E-05
 -0.12444789E-04 -0.14968258E-04 -0.17375814E-04 -0.19656518E-04 -0.21800257E-04
 -0.23797784E-04 -0.25640753E-04 -0.27321748E-04 -0.28834311E-04 -0.30172958E-04
 -0.31333198E-04 -0.32311536E-04 -0.33105481E-04 -0.33713545E-04 -0.34135231E-04
 -0.34371027E-04 -0.34422387E-04 -0.34291705E-04 -0.33982299E-04 -0.33498368E-04
 -0.32844968E-04 -0.32027968E-04 -0.31054006E-04 -0.29930449E-04 -0.28665339E-04
 -0.27267344E-04 -0.25745702E-04 -0.24110167E-04 -0.22370949E-04 -0.20538654E-04
 -0.18624225E-04 -0.16638877E-04 -0.14594038E-04 -0.12501284E-04 -0.10372278E-04
 -0.82187062E-05 -0.60522187E-05 -0.38843681E-05 -0.17265509E-05  0.41004989E-06
  0.25145197E-05  0.45762659E-05  0.65850681E-05  0.85311269E-05  0.10405108E-04
  0.12198186E-04  0.13902081E-04  0.15509096E-04  0.17012149E-04  0.18404800E-04
  0.19681275E-04  0.20836491E-04  0.21866067E-04  0.22766343E-04  0.23534383E-04
  0.24167985E-04  0.24665682E-04  0.25026736E-04  0.25251134E-04  0.25339581E-04
  0.25293479E-04  0.25114919E-04  0.24806652E-04  0.24372072E-04  0.23815188E-04
  0.23140592E-04  0.22353430E-04  0.21459365E-04  0.20464543E-04  0.19375555E-04
  0.18199391E-04  0.16943405E-04  0.15615267E-04  0.14222922E-04  0.12774540E-04
  0.11278478E-04  0.97432249E-05  0.81773627E-05  0.65895168E-05  0.49883115E-05
  0.33823248E-05  0.17800443E-05  0.18982448E-06 -0.13801556E-05 -0.29219322E-05
 -0.44277957E-05 -0.58903276E-05 -0.73024347E-05 -0.86573825E-05 -0.99488250E-05
 -0.11170833E-04 -0.12317919E-04 -0.13385060E-04 -0.14367719E-04 -0.15261859E-04
 -0.16063961E-04 -0.16771033E-04 -0.17380619E-04 -0.17890808E-04 -0.18300230E-04
 -0.18608063E-04 -0.18814026E-04 -0.18918374E-04 -0.18921890E-04 -0.18825876E-04
 -0.18632135E-04 -0.18342959E-04 -0.17961108E-04 -0.17489792E-04 -0.16932645E-04
 -0.16293704E-04 -0.15577382E-04 -0.14788437E-04 -0.13931947E-04 -0.13013277E-04
 -0.12038046E-04 -0.11012099E-04 -0.99414669E-05 -0.88323402E-05 -0.76910288E-05
 -0.65239301E-05 -0.53374937E-05 -0.41381880E-05 -0.29324652E-05 -0.17267284E-05
 -0.52729882E-06  0.65961620E-06  0.18279541E-05  0.29718271E-05  0.40855500E-05
  0.51636682E-05  0.62009823E-05  0.71925725E-05  0.81338208E-05  0.90204306E-05
  0.98484457E-05  0.10614266E-04  0.11314664E-04  0.11946791E-04  0.12508195E-04
  0.12996824E-04  0.13411031E-04  0.13749579E-04  0.14011644E-04  0.14196810E-04
  0.14305069E-04  0.14336816E-04  0.14292841E-04  0.14174318E-04  0.13982798E-04
  0.13720195E-04  0.13388769E-04  0.12991112E-04  0.12530131E-04  0.12009027E-04
  0.11431276E-04  0.10800606E-04  0.10120978E-04  0.93965585E-05  0.86316954E-05
  0.78308963E-05  0.69988001E-05  0.61401524E-05  0.52597793E-05  0.43625610E-05
  0.34534059E-05  0.25372243E-05  0.16189035E-05  0.70328170E-06 -0.20487592E-06
 -0.11009015E-05 -0.19802477E-05 -0.28385098E-05 -0.36714468E-05 -0.44750019E-05
 -0.52453211E-05 -0.59787711E-05 -0.66719553E-05 -0.73217289E-05 -0.79252119E-05
 -0.84798014E-05 -0.89831813E-05 -0.94333314E-05 -0.98285338E-05 -0.10167379E-04
 -0.10448769E-04 -0.10671918E-04 -0.10836357E-04 -0.10941926E-04 -0.10988778E-04
 Kinetic energy density valence
  0.18478905E+03  0.18458234E+03  0.18396464E+03  0.18294304E+03  0.18152893E+03
  0.17973740E+03  0.17758647E+03  0.17509639E+03  0.17228893E+03  0.16918675E+03
  0.16581301E+03  0.16219102E+03  0.15834402E+03  0.15429517E+03  0.15006742E+03
  0.14568359E+03  0.14116628E+03  0.13653788E+03  0.13182054E+03  0.12703605E+03
  0.12220580E+03  0.11735059E+03  0.11249055E+03  0.10764500E+03  0.10283233E+03
  0.98069875E+02  0.93373812E+02  0.88759085E+02  0.84239338E+02  0.79826863E+02
  0.75532579E+02  0.71366021E+02  0.67335347E+02  0.63447366E+02  0.59707571E+02
  0.56120193E+02  0.52688258E+02  0.49413657E+02  0.46297221E+02  0.43338797E+02
  0.40537335E+02  0.37890966E+02  0.35397092E+02  0.33052464E+02  0.30853265E+02
  0.28795189E+02  0.26873518E+02  0.25083188E+02  0.23418862E+02  0.21874989E+02
  0.20445866E+02  0.19125687E+02  0.17908595E+02  0.16788729E+02  0.15760257E+02
  0.14817418E+02  0.13954552E+02  0.13166126E+02  0.12446760E+02  0.11791245E+02
  0.11194563E+02  0.10651899E+02  0.10158651E+02  0.97104418E+01  0.93031221E+01
  0.89327749E+01  0.85957173E+01  0.82885002E+01  0.80079064E+01  0.77509473E+01
  0.75148581E+01  0.72970921E+01  0.70953142E+01  0.69073927E+01  0.67313919E+01
  0.65655625E+01  0.64083330E+01  0.62583001E+01  0.61142187E+01  0.59749924E+01
  0.58396637E+01  0.57074040E+01  0.55775042E+01  0.54493654E+01  0.53224892E+01
  0.51964694E+01  0.50709830E+01  0.49457820E+01  0.48206861E+01  0.46955742E+01
  0.45703785E+01  0.44450769E+01  0.43196874E+01  0.41942622E+01  0.40688821E+01
  0.39436518E+01  0.38186950E+01  0.36941509E+01  0.35701696E+01  0.34469094E+01
  0.33245334E+01  0.32032068E+01  0.30830944E+01  0.29643591E+01  0.28471591E+01
  0.27316475E+01  0.26179699E+01  0.25062642E+01  0.23966593E+01  0.22892745E+01
  0.21842191E+01  0.20815921E+01  0.19814819E+01  0.18839660E+01  0.17891117E+01
  0.16969757E+01  0.16076044E+01  0.15210343E+01  0.14372924E+01  0.13563965E+01
  0.12783556E+01  0.12031704E+01  0.11308338E+01  0.10613314E+01  0.99464201E+00
  0.93073817E+00  0.86958657E+00  0.81114861E+00  0.75538086E+00  0.70223555E+00
  0.65166097E+00  0.60360199E+00  0.55800038E+00  0.51479526E+00  0.47392345E+00
  0.43531984E+00  0.39891768E+00  0.36464892E+00  0.33244449E+00  0.30223455E+00
  0.27394875E+00  0.24751645E+00  0.22286692E+00  0.19992954E+00  0.17863400E+00
  0.15891040E+00  0.14068943E+00  0.12390251E+00  0.10848191E+00  0.94360814E-01
  0.81473478E-01  0.69755279E-01  0.59142809E-01  0.49573945E-01  0.40987911E-01
  0.33325341E-01  0.26528331E-01  0.20540482E-01  0.15306948E-01  0.10774474E-01
  0.68914273E-02  0.36078322E-02  0.87539705E-03 -0.13524612E-02 -0.31205944E-02
 -0.44721040E-02 -0.54483241E-02 -0.60888075E-02 -0.64313143E-02 -0.65118027E-02
 -0.63644233E-02 -0.60215153E-02 -0.55136065E-02 -0.48694157E-02 -0.41158581E-02
 -0.32780547E-02 -0.23793445E-02 -0.14413001E-02 -0.48374709E-03  0.47521243E-03
  0.14191734E-02  0.23333971E-02  0.32047761E-02  0.40217966E-02  0.47744953E-02
  0.54544140E-02  0.60545492E-02  0.65692990E-02  0.69944060E-02  0.73268966E-02
  0.75650184E-02  0.77081731E-02  0.77568475E-02  0.77125428E-02  0.75777002E-02
  0.73556262E-02  0.70504159E-02  0.66668749E-02  0.62104412E-02  0.56871065E-02
  0.51033369E-02  0.44659952E-02  0.37822633E-02  0.30595657E-02  0.23054953E-02
  0.15277404E-02  0.73401438E-03 -0.68012104E-04 -0.87077562E-03 -0.16668817E-02
 -0.24491624E-02 -0.32107311E-02 -0.39450317E-02 -0.46458849E-02 -0.53075298E-02
 -0.59246602E-02 -0.64924572E-02 -0.70066166E-02 -0.74633710E-02 -0.78595084E-02
 -0.81923844E-02 -0.84599310E-02 -0.86606599E-02 -0.87936611E-02 -0.88585982E-02
 -0.88556976E-02 -0.87857352E-02 -0.86500186E-02 -0.84503650E-02 -0.81890769E-02
 -0.78689134E-02 -0.74930597E-02 -0.70650931E-02 -0.65889476E-02 -0.60688756E-02
 -0.55094087E-02 -0.49153170E-02 -0.42915674E-02 -0.36432810E-02 -0.29756909E-02
 -0.22940991E-02 -0.16038345E-02 -0.91021120E-03 -0.21848763E-03  0.46617271E-03
  0.11387394E-02  0.17943512E-02  0.24283505E-02  0.30363152E-02  0.36140883E-02
  0.41578053E-02  0.46639182E-02  0.51292170E-02  0.55508488E-02  0.59263323E-02
  0.62535713E-02  0.65308631E-02  0.67569050E-02  0.69307976E-02  0.70520439E-02
  0.71205470E-02  0.71366036E-02  0.71008951E-02  0.70144763E-02  0.68787606E-02
  0.66955038E-02  0.64667850E-02  0.61949857E-02  0.58827667E-02  0.55330437E-02
  0.51489611E-02  0.47338649E-02  0.42912744E-02  0.38248530E-02  0.33383785E-02
  0.28357135E-02  0.23207750E-02  0.17975044E-02  0.12698385E-02  0.74167992E-03
  0.21686900E-03 -0.30084324E-03 -0.80782142E-03 -0.13005705E-02 -0.17757592E-02
 -0.22302415E-02 -0.26610766E-02 -0.30655471E-02 -0.34411748E-02 -0.37857351E-02
 -0.40972684E-02 -0.43740902E-02 -0.46147982E-02 -0.48182782E-02 -0.49837063E-02
 -0.51105508E-02 -0.51985697E-02 -0.52478085E-02 -0.52585937E-02 -0.52315260E-02
 -0.51674708E-02 -0.50675469E-02 -0.49331139E-02 -0.47657580E-02 -0.45672761E-02
 -0.43396588E-02 -0.40850724E-02 -0.38058400E-02 -0.35044213E-02 -0.31833924E-02
 -0.28454248E-02 -0.24932639E-02 -0.21297080E-02 -0.17575862E-02 -0.13797382E-02
 -0.99899208E-03 -0.61814505E-03 -0.23994284E-03  0.13293907E-03  0.49791376E-03
  0.85250005E-03  0.11943387E-02  0.15212071E-02  0.18310333E-02  0.21219080E-02
  0.23920954E-02  0.26400426E-02  0.28643877E-02  0.30639656E-02  0.32378133E-02
  0.33851724E-02  0.35054914E-02  0.35984252E-02  0.36638340E-02  0.37017802E-02
  0.37125239E-02  0.36965173E-02  0.36543979E-02  0.35869796E-02  0.34952441E-02
  0.33803299E-02  0.32435211E-02  0.30862351E-02  0.29100098E-02  0.27164898E-02
  0.25074125E-02  0.22845934E-02  0.20499114E-02  0.18052936E-02  0.15527009E-02
  0.12941121E-02  0.10315099E-02  0.76686596E-03  0.50212687E-03  0.23920032E-03
 -0.20057916E-04 -0.27385653E-03 -0.52048043E-03 -0.75830169E-03 -0.98578967E-03
 -0.12015202E-02 -0.14041839E-02 -0.15925930E-02 -0.17656880E-02 -0.19225426E-02
 -0.20623674E-02 -0.21845131E-02 -0.22884726E-02 -0.23738810E-02 -0.24405161E-02
 -0.24882962E-02 -0.25172786E-02 -0.25276556E-02 -0.25197505E-02 -0.24940126E-02
 -0.24510108E-02 -0.23914275E-02 -0.23160504E-02 -0.22257653E-02 -0.21215470E-02
 -0.20044503E-02 -0.18756007E-02 -0.17361846E-02 -0.15874393E-02 -0.14306425E-02
 -0.12671026E-02 -0.10981480E-02 -0.92511734E-03 -0.74934890E-03 -0.57217130E-03
 -0.39489371E-03 -0.21879677E-03 -0.45123768E-04  0.12492761E-03  0.29021307E-03
  0.44964891E-03  0.60221865E-03  0.74697894E-03  0.88306486E-03  0.10096945E-02
  0.11261728E-02  0.12318948E-02  0.13263479E-02  0.14091134E-02  0.14798677E-02
  0.15383825E-02  0.15845239E-02  0.16182515E-02  0.16396165E-02  0.16487592E-02
  0.16459058E-02  0.16313645E-02  0.16055218E-02  0.15688374E-02  0.15218393E-02
  0.14651180E-02  0.13993210E-02  0.13251463E-02  0.12433363E-02  0.11546711E-02
  0.10599617E-02  0.96004361E-03  0.85576976E-03  0.74800380E-03  0.63761351E-03
  0.52546425E-03  0.41241254E-03  0.29930001E-03  0.18694745E-03  0.76149265E-04
 -0.32331762E-04 -0.13776936E-03 -0.23947825E-03 -0.33681821E-03 -0.42919767E-03
 -0.51607693E-03 -0.59697081E-03 -0.67145087E-03 -0.73914718E-03 -0.79974954E-03
 -0.85300824E-03 -0.89873437E-03 -0.93679961E-03 -0.96713563E-03 -0.98973300E-03
 -0.10046397E-02 -0.10119593E-02 -0.10118484E-02 -0.10045147E-02 -0.99021311E-03
 -0.96924348E-03 -0.94194655E-03 -0.90870044E-03 -0.86991682E-03 -0.82603680E-03
 -0.77752686E-03 -0.72487457E-03 -0.66858436E-03 -0.60917320E-03 -0.54716635E-03
 -0.48309314E-03 -0.41748288E-03 -0.35086075E-03 -0.28374405E-03 -0.21663840E-03
 -0.15003427E-03 -0.84403687E-04 -0.20197157E-04  0.42159124E-04  0.10226582E-03
  0.15975271E-03  0.21428064E-03  0.26554323E-03  0.31326821E-03  0.35721845E-03
  0.39719280E-03  0.43302643E-03  0.46459109E-03  0.49179489E-03  0.51458191E-03
  0.53293150E-03  0.54685736E-03  0.55640630E-03  0.56165684E-03  0.56271762E-03
  0.55972552E-03  0.55284372E-03  0.54225955E-03  0.52818224E-03  0.51084054E-03
  0.49048029E-03  0.46736190E-03  0.44175778E-03  0.41394985E-03  0.38422690E-03
  0.35288209E-03  0.32021051E-03  0.28650666E-03  0.25206222E-03  0.21716372E-03
  0.18209049E-03  0.14711261E-03  0.11248909E-03  0.78466170E-04  0.45275771E-04
  0.13134137E-04 -0.17759354E-04 -0.47223199E-04 -0.75094594E-04 -0.10123007E-03
 -0.12550594E-03 -0.14781860E-03 -0.16808457E-03 -0.18624045E-03 -0.20224264E-03
 -0.21606698E-03 -0.22770809E-03 -0.23717876E-03 -0.24450905E-03 -0.24974535E-03
 -0.25294931E-03 -0.25419669E-03 -0.25357608E-03 -0.25118763E-03 -0.24714165E-03
 -0.24155722E-03 -0.23456075E-03 -0.22628455E-03 -0.21686535E-03 -0.20644289E-03
 -0.19515853E-03 -0.18315385E-03 -0.17056935E-03 -0.15754320E-03 -0.14421004E-03
 -0.13069987E-03 -0.11713704E-03 -0.10363933E-03 -0.90317091E-04 -0.77272532E-04
 -0.64599113E-04 -0.52381023E-04 -0.40692785E-04 -0.29598974E-04 -0.19154031E-04
 -0.94022049E-05 -0.37758732E-06  0.78957473E-05  0.15403502E-04  0.22140825E-04
  0.28111895E-04  0.33329424E-04  0.37814086E-04  0.41593887E-04  0.44703473E-04
  0.47183398E-04  0.49079347E-04  0.50441333E-04  0.51322870E-04  0.51780147E-04
  0.51871179E-04  0.51654987E-04  0.51190779E-04  0.50537159E-04  0.49751365E-04
  0.48888553E-04  0.48001119E-04  0.47138072E-04  0.46344470E-04  0.45660915E-04
  0.45123114E-04  0.44761508E-04  0.44600977E-04  0.44660615E-04  0.44953581E-04
  0.45487030E-04  0.46262110E-04  0.47274037E-04  0.48512246E-04  0.49960602E-04
  0.51597681E-04  0.53397117E-04  0.55327993E-04  0.57355301E-04  0.59440433E-04
  0.61541721E-04  0.63615010E-04  0.65614258E-04  0.67492155E-04  0.69200762E-04
  0.70692147E-04  0.71919034E-04  0.72835433E-04  0.73397266E-04  0.73562967E-04
  0.73294057E-04  0.72555688E-04  0.71317150E-04  0.69552327E-04  0.67240117E-04
  0.64364786E-04  0.60916280E-04  0.56890465E-04  0.52289313E-04  0.47121022E-04
  0.41400069E-04  0.35147203E-04  0.28389364E-04  0.21159544E-04  0.13496581E-04
  0.54448921E-05 -0.29458551E-05 -0.11621123E-04 -0.20521944E-04 -0.29585399E-04
 -0.38745154E-04 -0.47932023E-04 -0.57074572E-04 -0.66099751E-04 -0.74933544E-04
 -0.83501644E-04 -0.91730125E-04 -0.99546133E-04 -0.10687856E-03 -0.11365873E-03
 -0.11982104E-03 -0.12530359E-03 -0.13004882E-03 -0.13400406E-03 -0.13712207E-03
 -0.13936154E-03 -0.14068755E-03 -0.14107193E-03 -0.14049361E-03 -0.13893890E-03
 -0.13640172E-03 -0.13288373E-03 -0.12839441E-03 -0.12295110E-03 -0.11657895E-03
 -0.10931076E-03 -0.10118686E-03 -0.92254823E-04 -0.82569150E-04 -0.72190918E-04
 -0.61187334E-04 -0.49631256E-04 -0.37600654E-04 -0.25178030E-04 -0.12449794E-04
  0.49439531E-06  0.13562321E-04  0.26659925E-04  0.39692039E-04  0.52563137E-04
  0.65178086E-04  0.77442901E-04  0.89265498E-04  0.10055643E-03  0.11122960E-03
  0.12120297E-03  0.13039922E-03  0.13874636E-03  0.14617837E-03  0.15263567E-03
  0.15806570E-03  0.16242328E-03  0.16567105E-03  0.16777976E-03  0.16872854E-03
  0.16850510E-03  0.16710583E-03  0.16453589E-03  0.16080916E-03  0.15594820E-03
  0.14998407E-03  0.14295611E-03  0.13491170E-03  0.12590586E-03  0.11600090E-03
  0.10526590E-03  0.93776266E-04  0.81613094E-04  0.68862609E-04  0.55615498E-04
  0.41966232E-04  0.28012351E-04  0.13853730E-04 -0.40817498E-06 -0.14671096E-04
 -0.28832719E-04 -0.42791459E-04 -0.56447223E-04 -0.69702163E-04 -0.82461411E-04
 -0.94633787E-04 -0.10613248E-03 -0.11687571E-03 -0.12678729E-03 -0.13579725E-03
 -0.14384231E-03 -0.15086635E-03 -0.15682081E-03 -0.16166506E-03 -0.16536667E-03
 -0.16790163E-03 -0.16925450E-03 -0.16941855E-03 -0.16839570E-03 -0.16619659E-03
 -0.16284036E-03 -0.15835457E-03 -0.15277492E-03 -0.14614497E-03 -0.13851580E-03
 -0.12994556E-03 -0.12049907E-03 -0.11024727E-03 -0.99266662E-04 -0.87638765E-04
 -0.75449446E-04 -0.62788279E-04 -0.49747864E-04 -0.36423124E-04 -0.22910592E-04
 -0.93076877E-05  0.42880079E-05  0.17779477E-04  0.31070977E-04  0.44068745E-04
  0.56681677E-04  0.68821988E-04  0.80405842E-04  0.91353942E-04  0.10159210E-03
  0.11105173E-03  0.11967035E-03  0.12739198E-03  0.13416752E-03  0.13995507E-03
  0.14472017E-03  0.14843604E-03  0.15108369E-03  0.15265200E-03  0.15313779E-03
  0.15254574E-03  0.15088829E-03  0.14818555E-03  0.14446502E-03  0.13976138E-03
  0.13411613E-03  0.12757730E-03  0.12019897E-03  0.11204086E-03  0.10316785E-03
  0.93649407E-04  0.83559106E-04  0.72974001E-04  0.61974043E-04  0.50641468E-04
  0.39060165E-04  0.27315049E-04  0.15491422E-04  0.36743433E-05 -0.80519929E-05
 -0.19604870E-04 -0.30903644E-04 -0.41870315E-04 -0.52430075E-04 -0.62511825E-04
 -0.72048665E-04 -0.80978337E-04 -0.89243639E-04 -0.96792790E-04 -0.10357975E-03
 -0.10956452E-03 -0.11471333E-03 -0.11899885E-03 -0.12240031E-03 -0.12490359E-03
 -0.12650124E-03 -0.12719244E-03 -0.12698298E-03 -0.12588507E-03 -0.12391725E-03
 -0.12110414E-03 -0.11747616E-03 -0.11306929E-03 -0.10792471E-03 -0.10208844E-03
 -0.95610913E-04 -0.88546601E-04 -0.80953516E-04 -0.72892762E-04 -0.64428034E-04
 -0.55625121E-04 -0.46551393E-04 -0.37275278E-04 -0.27865752E-04 -0.18391814E-04
 -0.89219830E-05  0.47620236E-06  0.97366709E-05  0.18795284E-04  0.27590284E-04
  0.36062714E-04  0.44156816E-04  0.51820396E-04  0.59005157E-04  0.65667003E-04
  0.71766299E-04  0.77268101E-04  0.82142341E-04  0.86363981E-04  0.89913118E-04
  0.92775056E-04  0.94940330E-04  0.96404700E-04  0.97169097E-04  0.97239536E-04
  0.96626988E-04  0.95347223E-04  0.93420613E-04  0.90871905E-04  0.87729966E-04
  0.84027500E-04  0.79800743E-04  0.75089132E-04  0.69934956E-04  0.64382996E-04
  0.58480147E-04  0.52275032E-04  0.45817610E-04  0.39158780E-04  0.32349984E-04
  0.25442815E-04  0.18488628E-04  0.11538161E-04  0.46411671E-05 -0.21539387E-05
 -0.88004178E-05 -0.15253526E-04 -0.21470810E-04 -0.27412384E-04 -0.33041178E-04
 -0.38323162E-04 -0.43227542E-04 -0.47726927E-04 -0.51797469E-04 -0.55418972E-04
 -0.58574968E-04 -0.61252766E-04 -0.63443472E-04 -0.65141978E-04 -0.66346917E-04
 -0.67060600E-04 -0.67288918E-04 -0.67041222E-04 -0.66330177E-04 -0.65171594E-04
 -0.63584241E-04 -0.61589636E-04 -0.59211823E-04 -0.56477127E-04 -0.53413910E-04
 -0.50052302E-04 -0.46423932E-04 -0.42561653E-04 -0.38499257E-04 -0.34271201E-04
 -0.29912322E-04 -0.25457559E-04 -0.20941685E-04 -0.16399042E-04 -0.11863284E-04
 -0.73671376E-05 -0.29421688E-05  0.13814313E-05  0.55750463E-05  0.96118170E-05
  0.13466805E-04  0.17117137E-04  0.20542131E-04  0.23723396E-04  0.26644921E-04
  0.29293129E-04  0.31656926E-04  0.33727712E-04  0.35499385E-04  0.36968317E-04
  0.38133312E-04  0.38995548E-04  0.39558498E-04  0.39827836E-04  0.39811325E-04
  0.39518693E-04  0.38961499E-04  0.38152980E-04  0.37107894E-04  0.35842353E-04
  0.34373649E-04  0.32720080E-04  0.30900758E-04  0.28935435E-04  0.26844315E-04
  0.24647870E-04  0.22366665E-04  0.20021178E-04  0.17631633E-04  0.15217840E-04
  0.12799037E-04  0.10393751E-04  0.80196600E-05  0.56934737E-05  0.34308236E-05
  0.12461659E-05 -0.84730173E-06 -0.28377091E-05 -0.47145693E-05 -0.64688189E-05
 -0.80928455E-05 -0.95804996E-05 -0.10927094E-04 -0.12129389E-04 -0.13185565E-04
 -0.14095181E-04 -0.14859126E-04 -0.15479553E-04 -0.15959811E-04 -0.16304359E-04
 -0.16518680E-04 -0.16609183E-04 -0.16583099E-04 -0.16448380E-04 -0.16213582E-04
 -0.15887754E-04 -0.15480326E-04 -0.15000993E-04 -0.14459599E-04 -0.13866032E-04
 -0.13230109E-04 -0.12561478E-04 -0.11869515E-04 -0.11163232E-04 -0.10451193E-04
 -0.97414330E-05 -0.90413901E-05 -0.83578412E-05 -0.76968510E-05 -0.70637286E-05
 -0.64629944E-05 -0.58983562E-05 -0.53726962E-05 -0.48880669E-05 -0.44456974E-05
 -0.40460086E-05 -0.36886378E-05 -0.33724721E-05 -0.30956891E-05 -0.28558061E-05
 -0.26497359E-05 -0.24738485E-05 -0.23240382E-05 -0.21957958E-05 -0.20842838E-05
 -0.19844152E-05 -0.18909340E-05 -0.17984963E-05 -0.17017526E-05 -0.15954286E-05
 -0.14744045E-05 -0.13337924E-05 -0.11690098E-05 -0.97584935E-06 -0.75054385E-06
 -0.48982564E-06 -0.19097993E-06  0.14810851E-06  0.52891589E-06  0.95224752E-06
  0.14182138E-05  0.19262146E-05  0.24749316E-05  0.30623294E-05  0.36856650E-05
  0.43415057E-05  0.50257546E-05  0.57336849E-05  0.64599810E-05  0.71987874E-05
  0.79437631E-05  0.86881438E-05  0.94248079E-05  0.10146348E-04  0.10845148E-04
  0.11513459E-04  0.12143483E-04  0.12727458E-04  0.13257737E-04  0.13726877E-04
 atomic pseudo charge-density
  0.90000000E+01  0.89802938E+01  0.89217989E+01  0.88263280E+01  0.86967226E+01
  0.85366113E+01  0.83501232E+01  0.81415923E+01  0.79152884E+01  0.76751994E+01
  0.74248779E+01  0.71673552E+01  0.69051172E+01  0.66401285E+01  0.63738911E+01
  0.61075216E+01  0.58418364E+01  0.55774327E+01  0.53147614E+01  0.50541864E+01
  0.47960302E+01  0.45406062E+01  0.42882394E+01  0.40392767E+01  0.37940906E+01
  0.35530767E+01  0.33166480E+01  0.30852270E+01  0.28592370E+01  0.26390926E+01
  0.24251920E+01  0.22179086E+01  0.20175851E+01  0.18245280E+01  0.16390034E+01
  0.14612348E+01  0.12914007E+01  0.11296347E+01  0.97602506E+00  0.83061641E+00
  0.69341107E+00  0.56437137E+00  0.44342233E+00  0.33045451E+00  0.22532718E+00
  0.12787152E+00  0.37893850E-01 -0.44821128E-01 -0.12050721E+00 -0.18941367E+00
 -0.25180244E+00 -0.30794538E+00 -0.35812182E+00 -0.40261624E+00 -0.44171622E+00
 -0.47571046E+00 -0.50488714E+00 -0.52953233E+00 -0.54992867E+00 -0.56635416E+00
 -0.57908112E+00 -0.58837530E+00 -0.59449509E+00 -0.59769086E+00 -0.59820448E+00
 -0.59626883E+00 -0.59210744E+00 -0.58593431E+00 -0.57795363E+00 -0.56835974E+00
 -0.55733703E+00 -0.54505998E+00 -0.53169318E+00 -0.51739147E+00 -0.50230007E+00
 -0.48655472E+00 -0.47028195E+00 -0.45359929E+00 -0.43661553E+00 -0.41943098E+00
 -0.40213782E+00 -0.38482035E+00 -0.36755537E+00 -0.35041245E+00 -0.33345430E+00
 -0.31673712E+00 -0.30031089E+00 -0.28421974E+00 -0.26850228E+00 -0.25319191E+00
 -0.23831717E+00 -0.22390205E+00 -0.20996627E+00 -0.19652561E+00 -0.18359221E+00
 -0.17117479E+00 -0.15927901E+00 -0.14790766E+00 -0.13706092E+00 -0.12673662E+00
 -0.11693045E+00 -0.10763617E+00 -0.98845852E-01 -0.90550000E-01 -0.82737797E-01
 -0.75397248E-01 -0.68515345E-01 -0.62078214E-01 -0.56071260E-01 -0.50479296E-01
 -0.45286663E-01 -0.40477343E-01 -0.36035061E-01 -0.31943386E-01 -0.28185811E-01
 -0.24745838E-01 -0.21607049E-01 -0.18753173E-01 -0.16168145E-01 -0.13836156E-01
 -0.11741706E-01 -0.98696440E-02 -0.82052028E-02 -0.67340335E-02 -0.54422321E-02
 -0.43163632E-02 -0.33434791E-02 -0.25111354E-02 -0.18074036E-02 -0.12208800E-02
 -0.74069143E-03 -0.35649933E-03 -0.58500011E-04  0.16257659E-03  0.31547052E-03
  0.40839742E-03  0.44905578E-03  0.44463591E-03  0.40183031E-03  0.32684533E-03
  0.22541403E-03  0.10281003E-03 -0.36137755E-04 -0.18702959E-03 -0.34587873E-03
 -0.50909471E-03 -0.67346623E-03 -0.83614358E-03 -0.99462096E-03 -0.11467186E-02
 -0.12905646E-02 -0.14245773E-02 -0.15474470E-02 -0.16581185E-02 -0.17557734E-02
 -0.18398126E-02 -0.19098398E-02 -0.19656445E-02 -0.20071859E-02 -0.20345769E-02
 -0.20480694E-02 -0.20480387E-02 -0.20349700E-02 -0.20094442E-02 -0.19721249E-02
 -0.19237461E-02 -0.18651000E-02 -0.17970260E-02 -0.17203997E-02 -0.16361234E-02
 -0.15451159E-02 -0.14483047E-02 -0.13466170E-02 -0.12409729E-02 -0.11322780E-02
 -0.10214176E-02 -0.90925031E-03 -0.79660390E-03 -0.68427005E-03 -0.57300075E-03
 -0.46350476E-03 -0.35644481E-03 -0.25243516E-03 -0.15203972E-03 -0.55770642E-04
  0.35912671E-04  0.12260414E-03  0.20395118E-03  0.27965446E-03  0.34946737E-03
  0.41319513E-03  0.47069359E-03  0.52186778E-03  0.56667017E-03  0.60509875E-03
  0.63719488E-03  0.66304092E-03  0.68275780E-03  0.69650237E-03  0.70446469E-03
  0.70686524E-03  0.70395198E-03  0.69599753E-03  0.68329613E-03  0.66616076E-03
  0.64492021E-03  0.61991615E-03  0.59150029E-03  0.56003162E-03  0.52587368E-03
  0.48939197E-03  0.45095139E-03  0.41091393E-03  0.36963630E-03  0.32746787E-03
  0.28474863E-03  0.24180736E-03  0.19895993E-03  0.15650774E-03  0.11473635E-03
  0.73914247E-04  0.34291814E-04 -0.38996123E-05 -0.40448454E-04 -0.75163484E-04
 -0.10787425E-03 -0.13843133E-03 -0.16670651E-03 -0.19259269E-03 -0.21600382E-03
 -0.23687454E-03 -0.25515982E-03 -0.27083442E-03 -0.28389227E-03 -0.29434574E-03
 -0.30222481E-03 -0.30757617E-03 -0.31046224E-03 -0.31096015E-03 -0.30916060E-03
 -0.30516675E-03 -0.29909301E-03 -0.29106386E-03 -0.28121259E-03 -0.26968007E-03
 -0.25661348E-03 -0.24216511E-03 -0.22649110E-03 -0.20975023E-03 -0.19210276E-03
 -0.17370925E-03 -0.15472950E-03 -0.13532142E-03 -0.11564007E-03 -0.95836706E-04
 -0.76057848E-04 -0.56444476E-04 -0.37131255E-04 -0.18245840E-04  0.91746481E-07
  0.17769667E-04  0.34684746E-04  0.50742870E-04  0.65859315E-04  0.79959000E-04
  0.92976663E-04  0.10485697E-03  0.11555454E-03  0.12503394E-03  0.13326956E-03
  0.14024543E-03  0.14595506E-03  0.15040112E-03  0.15359510E-03  0.15555696E-03
  0.15631468E-03  0.15590380E-03  0.15436695E-03  0.15175325E-03  0.14811782E-03
  0.14352115E-03  0.13802853E-03  0.13170942E-03  0.12463683E-03  0.11688669E-03
  0.10853725E-03  0.99668421E-04  0.90361202E-04  0.80697047E-04  0.70757293E-04
  0.60622598E-04  0.50372396E-04  0.40084379E-04  0.29834010E-04  0.19694066E-04
  0.97342097E-05  0.20603900E-07 -0.93844451E-05 -0.18422803E-04 -0.27040783E-04
 -0.35189388E-04 -0.42824506E-04 -0.49907067E-04 -0.56403165E-04 -0.62284136E-04
 -0.67526597E-04 -0.72112448E-04 -0.76028842E-04 -0.79268108E-04 -0.81827655E-04
 -0.83709829E-04 -0.84921750E-04 -0.85475120E-04 -0.85385994E-04 -0.84674546E-04
 -0.83364792E-04 -0.81484313E-04 -0.79063951E-04 -0.76137491E-04 -0.72741336E-04
 -0.68914174E-04 -0.64696630E-04 -0.60130926E-04 -0.55260531E-04 -0.50129818E-04
 -0.44783720E-04 -0.39267398E-04 -0.33625908E-04 -0.27903887E-04 -0.22145249E-04
 -0.16392890E-04 -0.10688411E-04 -0.50718652E-05  0.41848965E-06  0.57464090E-05
  0.10877863E-04  0.15781217E-04  0.20427387E-04  0.24789978E-04  0.28845391E-04
  0.32572918E-04  0.35954807E-04  0.38976301E-04  0.41625667E-04  0.43894186E-04
  0.45776140E-04  0.47268762E-04  0.48372178E-04  0.49089321E-04  0.49425836E-04
  0.49389963E-04  0.48992405E-04  0.48246183E-04  0.47166481E-04  0.45770474E-04
  0.44077152E-04  0.42107133E-04  0.39882471E-04  0.37426456E-04  0.34763416E-04
  0.31918510E-04  0.28917528E-04  0.25786685E-04  0.22552423E-04  0.19241212E-04
  0.15879362E-04  0.12492832E-04  0.91070582E-05  0.57467824E-05  0.24358904E-05
 -0.80273568E-06 -0.39473563E-05 -0.69775009E-05 -0.98740820E-05 -0.12619496E-04
 -0.15197713E-04 -0.17594346E-04 -0.19796719E-04 -0.21793905E-04 -0.23576766E-04
 -0.25137967E-04 -0.26471986E-04 -0.27575100E-04 -0.28445374E-04 -0.29082617E-04
 -0.29488348E-04 -0.29665733E-04 -0.29619522E-04 -0.29355974E-04 -0.28882769E-04
 -0.28208918E-04 -0.27344664E-04 -0.26301370E-04 -0.25091415E-04 -0.23728070E-04
 -0.22225385E-04 -0.20598063E-04 -0.18861335E-04 -0.17030840E-04 -0.15122496E-04
 -0.13152380E-04 -0.11136605E-04 -0.90912024E-05 -0.70320060E-05 -0.49745433E-05
 -0.29339291E-05 -0.92476553E-06  0.10389512E-05  0.29439176E-05  0.47776028E-05
  0.65283201E-05  0.81852912E-05  0.97387020E-05  0.11179750E-04  0.12500683E-04
  0.13694830E-04  0.14756621E-04  0.15681602E-04  0.16466439E-04  0.17108914E-04
  0.17607913E-04  0.17963407E-04  0.18176423E-04  0.18249016E-04  0.18184220E-04
  0.17986006E-04  0.17659231E-04  0.17209576E-04  0.16643486E-04  0.15968103E-04
  0.15191198E-04  0.14321095E-04  0.13366600E-04  0.12336919E-04  0.11241585E-04
  0.10090380E-04  0.88932516E-05  0.76602410E-05  0.64014043E-05  0.51267382E-05
  0.38461081E-05  0.25691784E-05  0.13053461E-05  0.63678104E-07 -0.11471475E-05
 -0.23188963E-05 -0.34438271E-05 -0.45147374E-05 -0.55250032E-05 -0.64686141E-05
 -0.73402024E-05 -0.81350674E-05 -0.88491939E-05 -0.94792651E-05 -0.10022670E-04
 -0.10477507E-04 -0.10842578E-04 -0.11117382E-04 -0.11302103E-04 -0.11397590E-04
 -0.11405334E-04 -0.11327444E-04 -0.11166617E-04 -0.10926098E-04 -0.10609649E-04
 -0.10221507E-04 -0.97663384E-05 -0.92491965E-05 -0.86754742E-05 -0.80508557E-05
 -0.73812668E-05 -0.66728252E-05 -0.59317906E-05 -0.51645146E-05 -0.43773909E-05
 -0.35768070E-05 -0.27690967E-05 -0.19604940E-05 -0.11570891E-05 -0.36478656E-06
  0.41073460E-06  0.11640578E-05  0.18900630E-05  0.25839579E-05  0.32413063E-05
  0.38580522E-05  0.44305414E-05  0.49555396E-05  0.54302460E-05  0.58523045E-05
  0.62198106E-05  0.65313151E-05  0.67858240E-05  0.69827954E-05  0.71221330E-05
  0.72041758E-05  0.72296861E-05  0.71998332E-05  0.71161751E-05  0.69806383E-05
  0.67954938E-05  0.65633326E-05  0.62870388E-05  0.59697604E-05  0.56148801E-05
  0.52259844E-05  0.48068313E-05  0.43613186E-05  0.38934511E-05  0.34073078E-05
  0.29070100E-05  0.23966885E-05  0.18804530E-05  0.13623611E-05  0.84638928E-06
  0.33640451E-06 -0.16386214E-06 -0.65084062E-06 -0.11211451E-05 -0.15715952E-05
 -0.19992355E-05 -0.24013523E-05 -0.27754889E-05 -0.31194579E-05 -0.34313520E-05
 -0.37095515E-05 -0.39527302E-05 -0.41598589E-05 -0.43302059E-05 -0.44633360E-05
 -0.45591070E-05 -0.46176642E-05 -0.46394325E-05 -0.46251068E-05 -0.45756408E-05
 -0.44922337E-05 -0.43763155E-05 -0.42295310E-05 -0.40537224E-05 -0.38509108E-05
 -0.36232769E-05 -0.33731404E-05 -0.31029401E-05 -0.28152116E-05 -0.25125667E-05
 -0.21976713E-05 -0.18732242E-05 -0.15419357E-05 -0.12065065E-05 -0.86960787E-06
 -0.53386151E-06 -0.20182085E-06  0.12404687E-06  0.44137746E-06  0.74792558E-06
  0.10415791E-05  0.13203724E-05  0.15824979E-05  0.18263165E-05  0.20503664E-05
  0.22533699E-05  0.24342398E-05  0.25920829E-05  0.27262027E-05  0.28361006E-05
  0.29214748E-05  0.29822190E-05  0.30184183E-05  0.30303446E-05  0.30184506E-05
  0.29833620E-05  0.29258690E-05  0.28469169E-05  0.27475952E-05  0.26291263E-05
  0.24928532E-05  0.23402263E-05  0.21727905E-05  0.19921707E-05  0.18000582E-05
  0.15981957E-05  0.13883632E-05  0.11723636E-05  0.95200807E-06  0.72910206E-06
  0.50543171E-06  0.28275042E-06  0.62766099E-07 -0.15287096E-06 -0.36257956E-06
 -0.56485823E-06 -0.75829515E-06 -0.94157702E-06 -0.11134971E-05 -0.12729623E-05
 -0.14189990E-05 -0.15507582E-05 -0.16675194E-05 -0.17686934E-05 -0.18538240E-05
 -0.19225889E-05 -0.19747991E-05 -0.20103978E-05 -0.20294583E-05 -0.20321800E-05
 -0.20188850E-05 -0.19900126E-05 -0.19461136E-05 -0.18878440E-05 -0.18159573E-05
 -0.17312972E-05 -0.16347888E-05 -0.15274300E-05 -0.14102824E-05 -0.12844617E-05
 -0.11511279E-05 -0.10114757E-05 -0.86672448E-06 -0.71810822E-06 -0.56686596E-06
 -0.41423199E-06 -0.26142649E-06 -0.10964638E-06  0.39943458E-07  0.18621847E-06
  0.32810234E-06  0.46457428E-06  0.59467584E-06  0.71751703E-06  0.83228181E-06
  0.93823295E-06  0.10347161E-05  0.11211633E-05  0.11970954E-05  0.12621245E-05
  0.13159546E-05  0.13583823E-05  0.13892967E-05  0.14086783E-05  0.14165973E-05
  0.14132115E-05  0.13987634E-05  0.13735763E-05  0.13380508E-05  0.12926598E-05
  0.12379438E-05  0.11745052E-05  0.11030025E-05  0.10241442E-05  0.93868264E-06
  0.84740689E-06  0.75113637E-06  0.65071380E-06  0.54699835E-06  0.44085867E-06
  0.33316607E-06  0.22478772E-06  0.11658014E-06  0.93827414E-08 -0.95988273E-07
 -0.19874575E-06 -0.29813708E-06 -0.39344937E-06 -0.48401416E-06 -0.56921174E-06
 -0.64847500E-06 -0.72129284E-06 -0.78721304E-06 -0.84584467E-06 -0.89685995E-06
 -0.93999565E-06 -0.97505389E-06 -0.10019025E-05 -0.10204749E-05 -0.10307693E-05
 -0.10328477E-05 -0.10268342E-05 -0.10129128E-05 -0.99132530E-06 -0.96236802E-06
 -0.92638884E-06 -0.88378354E-06 -0.83499189E-06 -0.78049362E-06 -0.72080397E-06
 -0.65646919E-06 -0.58806183E-06 -0.51617590E-06 -0.44142199E-06 -0.36442233E-06
 -0.28580584E-06 -0.20620326E-06 -0.12624231E-06 -0.46542956E-07  0.32287147E-07
  0.10965706E-06  0.18499675E-06  0.25776107E-06  0.32743348E-06  0.39352943E-06
  0.45559954E-06  0.51323236E-06  0.56605688E-06  0.61374463E-06  0.65601146E-06
  0.69261896E-06  0.72337544E-06  0.74813666E-06  0.76680612E-06  0.77933496E-06
  0.78572155E-06  0.78601077E-06  0.78029284E-06  0.76870194E-06  0.75141447E-06
  0.72864701E-06  0.70065409E-06  0.66772560E-06  0.63018410E-06  0.58838182E-06
  0.54269758E-06  0.49353349E-06  0.44131160E-06  0.38647041E-06  0.32946129E-06
  0.27074499E-06  0.21078796E-06  0.15005884E-06  0.89024894E-07  0.28148593E-07
 -0.32115788E-07 -0.91325403E-07 -0.14905194E-06 -0.20488460E-06 -0.25843283E-06
 -0.30932892E-06 -0.35723039E-06 -0.40182212E-06 -0.44281822E-06 -0.47996375E-06
 -0.51303609E-06 -0.54184607E-06 -0.56623888E-06 -0.58609468E-06 -0.60132890E-06
 -0.61189240E-06 -0.61777120E-06 -0.61898610E-06 -0.61559199E-06 -0.60767691E-06
 -0.59536090E-06 -0.57879465E-06 -0.55815792E-06 -0.53365777E-06 -0.50552665E-06
 -0.47402031E-06 -0.43941559E-06 -0.40200805E-06 -0.36210957E-06 -0.32004582E-06
 -0.27615366E-06 -0.23077855E-06 -0.18427190E-06 -0.13698843E-06 -0.89283512E-07
 -0.41510649E-07  0.59811158E-08  0.52849640E-07  0.98762061E-07  0.14339706E-06
  0.18644703E-06  0.22762007E-06  0.26664190E-06  0.30325753E-06  0.33723288E-06
  0.36835609E-06  0.39643879E-06  0.42131707E-06  0.44285230E-06  0.46093181E-06
  0.47546925E-06  0.48640490E-06  0.49370569E-06  0.49736501E-06  0.49740247E-06
  0.49386332E-06  0.48681776E-06  0.47636014E-06  0.46260787E-06  0.44570033E-06
  0.42579753E-06  0.40307869E-06  0.37774069E-06  0.34999645E-06  0.32007317E-06
  0.28821055E-06  0.25465889E-06  0.21967718E-06  0.18353120E-06  0.14649146E-06
  0.10883131E-06  0.70824923E-07  0.32745392E-07 -0.51372083E-08 -0.42557660E-07
 -0.79257403E-07 -0.11498626E-06 -0.14950407E-06 -0.18258224E-06 -0.21400520E-06
 -0.24357170E-06 -0.27109606E-06 -0.29640924E-06 -0.31935979E-06 -0.33981467E-06
 -0.35765997E-06 -0.37280139E-06 -0.38516465E-06 -0.39469578E-06 -0.40136116E-06
 -0.40514757E-06 -0.40606191E-06 -0.40413099E-06 -0.39940101E-06 -0.39193702E-06
 -0.38182224E-06 -0.36915721E-06 -0.35405891E-06 -0.33665972E-06 -0.31710634E-06
 -0.29555856E-06 -0.27218800E-06 -0.24717683E-06 -0.22071632E-06 -0.19300545E-06
 -0.16424944E-06 -0.13465828E-06 -0.10444519E-06 -0.73825178E-07 -0.43013505E-07
 -0.12224233E-07  0.18331228E-07  0.48445529E-07  0.77916742E-07  0.10654967E-06
  0.13415711E-06  0.16056097E-06  0.18559345E-06  0.20909798E-06  0.23093021E-06
  0.25095880E-06  0.26906615E-06  0.28514908E-06  0.29911928E-06  0.31090383E-06
  0.32044539E-06  0.32770253E-06  0.33264974E-06  0.33527743E-06  0.33559184E-06
  0.33361479E-06  0.32938337E-06  0.32294950E-06  0.31437943E-06  0.30375313E-06
  0.29116359E-06  0.27671604E-06  0.26052714E-06  0.24272404E-06  0.22344342E-06
  0.20283048E-06  0.18103786E-06  0.15822455E-06  0.13455474E-06  0.11019667E-06
  0.85321483E-07  0.60102022E-07  0.34711679E-07  0.93232238E-08 -0.15892337E-07
 -0.40766884E-07 -0.65136275E-07 -0.88841390E-07 -0.11172914E-06 -0.13365343E-06
 -0.15447603E-06 -0.17406744E-06 -0.19230768E-06 -0.20908692E-06 -0.22430618E-06
 -0.23787785E-06 -0.24972615E-06 -0.25978752E-06 -0.26801093E-06 -0.27435808E-06
 -0.27880357E-06 -0.28133490E-06 -0.28195244E-06 -0.28066930E-06 -0.27751117E-06
 -0.27251594E-06 -0.26573342E-06 -0.25722486E-06 -0.24706243E-06 -0.23532868E-06
 -0.22211584E-06 -0.20752516E-06 -0.19166615E-06 -0.17465580E-06 -0.15661769E-06
 -0.13768117E-06 -0.11798042E-06 -0.97653533E-07 -0.76841557E-07 -0.55687558E-07
 -0.34335646E-07 -0.12930019E-07  0.83859858E-08  0.29470835E-07  0.50185716E-07
  0.70395433E-07  0.89969267E-07  0.10878180E-06  0.12671370E-06  0.14365246E-06
  0.15949307E-06  0.17413868E-06  0.18750116E-06  0.19950160E-06  0.21007078E-06
  0.21914954E-06  0.22668910E-06  0.23265126E-06  0.23700863E-06  0.23974469E-06
  0.24085384E-06  0.24034131E-06  0.23822310E-06  0.23452573E-06  0.22928603E-06
  0.22255080E-06  0.21437642E-06  0.20482842E-06  0.19398099E-06  0.18191638E-06
  0.16872434E-06  0.15450145E-06  0.13935045E-06  0.12337948E-06  0.10670138E-06
  0.89432847E-07  0.71693708E-07  0.53606041E-07  0.35293378E-07  0.16879870E-07
 -0.15105426E-08 -0.19754946E-07 -0.37732265E-07 -0.55324051E-07 -0.72415258E-07
 -0.88894984E-07 -0.10465719E-06 -0.11960135E-06 -0.13363312E-06 -0.14666490E-06
 -0.15861637E-06 -0.16941499E-06 -0.17899642E-06 -0.18730493E-06 -0.19429365E-06
 -0.19992491E-06 -0.20417036E-06 -0.20701114E-06 -0.20843792E-06 -0.20845089E-06
 -0.20705976E-06 -0.20428356E-06 -0.20015050E-06 -0.19469772E-06 -0.18797098E-06
 -0.18002428E-06 -0.17091947E-06 -0.16072578E-06 -0.14951933E-06 -0.13738254E-06
 -0.12440358E-06 -0.11067571E-06 -0.96296664E-07 -0.81367908E-07 -0.65993977E-07
 -0.50281736E-07 -0.34339655E-07 -0.18277065E-07 -0.22034183E-08  0.13772455E-07
  0.29543077E-07  0.45003049E-07  0.60049741E-07  0.74583979E-07  0.88510685E-07
   15.1178079086314      T
 Non local Part
           0           2   1.35164824889580     
  -3.91721191400143        1.08639913915948        1.08639913915948     
 -0.300612247691674     
 Reciprocal Space Part
  0.22124505E+02  0.22043152E+02  0.21799567E+02  0.21395174E+02  0.20832343E+02
  0.20114395E+02  0.19245600E+02  0.18231172E+02  0.17077271E+02  0.15790990E+02
  0.14380347E+02  0.12854269E+02  0.11222568E+02  0.94959074E+01  0.76857699E+01
  0.58044034E+01  0.38647646E+01  0.18804490E+01 -0.13439013E+00 -0.21651337E+01
 -0.41968007E+01 -0.62141626E+01 -0.82018677E+01 -0.10144576E+02 -0.12027099E+02
 -0.13834552E+02 -0.15552503E+02 -0.17167128E+02 -0.18665371E+02 -0.20035093E+02
 -0.21265224E+02 -0.22345905E+02 -0.23268617E+02 -0.24026306E+02 -0.24613485E+02
 -0.25026323E+02 -0.25262715E+02 -0.25322333E+02 -0.25206650E+02 -0.24918941E+02
 -0.24464270E+02 -0.23849436E+02 -0.23082909E+02 -0.22174733E+02 -0.21136409E+02
 -0.19980760E+02 -0.18721768E+02 -0.17374401E+02 -0.15954418E+02 -0.14478170E+02
 -0.12962381E+02 -0.11423934E+02 -0.98796445E+01 -0.83460409E+01 -0.68391485E+01
 -0.53742796E+01 -0.39658364E+01 -0.26271276E+01 -0.13702032E+01 -0.20570889E+00
  0.85723659E+00  0.18111400E+01  0.26502062E+01  0.33703829E+01  0.39693795E+01
  0.44466562E+01  0.48033874E+01  0.50423982E+01  0.51680756E+01  0.51862566E+01
  0.51040955E+01  0.49299126E+01  0.46730266E+01  0.43435757E+01  0.39523283E+01
  0.35104885E+01  0.30294992E+01  0.25208464E+01  0.19958677E+01  0.14655697E+01
  0.94045487E+00  0.43036375E+00 -0.55667638E-01 -0.50953131E+00 -0.92415074E+00
 -0.12935625E+01 -0.16129755E+01 -0.18788066E+01 -0.20886937E+01 -0.22414857E+01
 -0.23372101E+01 -0.23770208E+01 -0.23631261E+01 -0.22986991E+01 -0.21877739E+01
 -0.20351289E+01 -0.18461596E+01 -0.16267452E+01 -0.13831095E+01 -0.11216818E+01
 Real Space Part
 -0.12482108E+03 -0.12471319E+03 -0.12438976E+03 -0.12385149E+03 -0.12309955E+03
 -0.12213558E+03 -0.12096168E+03 -0.11958045E+03 -0.11799493E+03 -0.11620865E+03
 -0.11422564E+03 -0.11205036E+03 -0.10968780E+03 -0.10714341E+03 -0.10442311E+03
 -0.10153332E+03 -0.98480944E+02 -0.95273361E+02 -0.91918426E+02 -0.88424472E+02
 -0.84800299E+02 -0.81055170E+02 -0.77198801E+02 -0.73241352E+02 -0.69193414E+02
 -0.65065996E+02 -0.60870506E+02 -0.56618734E+02 -0.52322832E+02 -0.47995286E+02
 -0.43648895E+02 -0.39296741E+02 -0.34952155E+02 -0.30628686E+02 -0.26340065E+02
 -0.22100165E+02 -0.17922962E+02 -0.13822487E+02 -0.98127871E+01 -0.59078725E+01
 -0.21216694E+01  0.15320316E+01  0.50396286E+01  0.83877624E+01  0.11563371E+02
  0.14553748E+02  0.17346597E+02  0.19930088E+02  0.22292916E+02  0.24424361E+02
  0.26314335E+02  0.27953447E+02  0.29333051E+02  0.30445302E+02  0.31283203E+02
  0.31840658E+02  0.32112512E+02  0.32094600E+02  0.31783783E+02  0.31177987E+02
  0.30276233E+02  0.29078670E+02  0.27586593E+02  0.25802470E+02  0.23729953E+02
  0.21373890E+02  0.18740330E+02  0.15836523E+02  0.12670916E+02  0.92531410E+01
  0.55939901E+01  0.17053208E+01 -0.24002025E+01 -0.67034392E+01 -0.11096404E+02
 -0.14876031E+02 -0.11723113E+02 -0.93143804E+01 -0.72389875E+01 -0.54657154E+01
 -0.39780273E+01 -0.27564291E+01 -0.17819373E+01 -0.10366897E+01 -0.50390366E+00
 -0.16794028E+00 -0.15346876E-01  0.54401656E-03  0.12883333E-03 -0.23045849E-04
 -0.11586579E-05  0.69250581E-06 -0.61601641E-07 -0.10719173E-07  0.34161272E-08
 -0.29875400E-09 -0.49862434E-10  0.19203563E-10 -0.28422260E-11 -0.66873404E-13
 Reciprocal Space Part
  0.63346328E+02  0.63061869E+02  0.62210153E+02  0.60796155E+02  0.58828176E+02
  0.56317847E+02  0.53280131E+02  0.49733334E+02  0.45699093E+02  0.41202371E+02
  0.36271423E+02  0.30937756E+02  0.25236059E+02  0.19204106E+02  0.12882630E+02
  0.63151631E+01 -0.45216557E+00 -0.73708706E+01 -0.14390393E+02 -0.21458429E+02
 -0.28521295E+02 -0.35524344E+02 -0.42412416E+02 -0.49130320E+02 -0.55623359E+02
 -0.61837866E+02 -0.67721770E+02 -0.73225169E+02 -0.78300905E+02 -0.82905134E+02
 -0.86997879E+02 -0.90543561E+02 -0.93511493E+02 -0.95876329E+02 -0.97618458E+02
 -0.98724346E+02 -0.99186791E+02 -0.99005116E+02 -0.98185273E+02 -0.96739859E+02
 -0.94688048E+02 -0.92055422E+02 -0.88873721E+02 -0.85180496E+02 -0.81018676E+02
 -0.76436061E+02 -0.71484729E+02 -0.66220387E+02 -0.60701655E+02 -0.54989311E+02
 -0.49145495E+02 -0.43232894E+02 -0.37313912E+02 -0.31449846E+02 -0.25700081E+02
 -0.20121307E+02 -0.14766784E+02 -0.96856593E+01 -0.49223518E+01 -0.51600752E+00
  0.34999563E+01  0.70982170E+01  0.10257816E+02  0.12964324E+02  0.15209909E+02
  0.16993291E+02  0.18319605E+02  0.19200155E+02  0.19652083E+02  0.19697946E+02
  0.19365211E+02  0.18685689E+02  0.17694903E+02  0.16431413E+02  0.14936108E+02
  0.13251466E+02  0.11420824E+02  0.94876314E+01  0.74947411E+01  0.54837150E+01
  0.34941795E+01  0.15632304E+01 -0.27510028E+00 -0.19903072E+01 -0.35557983E+01
 -0.49492000E+01 -0.61525758E+01 -0.71525597E+01 -0.79404001E+01 -0.85119195E+01
 -0.88673909E+01 -0.90113357E+01 -0.89522500E+01 -0.87022660E+01 -0.82767563E+01
 -0.76938917E+01 -0.69741612E+01 -0.61398649E+01 -0.52145910E+01 -0.42226873E+01
 Real Space Part
 -0.49957824E+03 -0.49915654E+03 -0.49789232E+03 -0.49578834E+03 -0.49284914E+03
 -0.48908114E+03 -0.48449254E+03 -0.47909342E+03 -0.47289570E+03 -0.46591312E+03
 -0.45816132E+03 -0.44965778E+03 -0.44042185E+03 -0.43047476E+03 -0.41983961E+03
 -0.40854138E+03 -0.39660690E+03 -0.38406489E+03 -0.37094589E+03 -0.35728231E+03
 -0.34310834E+03 -0.32845997E+03 -0.31337495E+03 -0.29789273E+03 -0.28205442E+03
 -0.26590274E+03 -0.24948195E+03 -0.23283778E+03 -0.21601735E+03 -0.19906906E+03
 -0.18204251E+03 -0.16498838E+03 -0.14795831E+03 -0.13100477E+03 -0.11418091E+03
 -0.97540445E+02 -0.81137443E+02 -0.65026207E+02 -0.49261072E+02 -0.33896230E+02
 -0.18985540E+02 -0.45823282E+01  0.92608130E+01  0.22492233E+02  0.35061438E+02
  0.46919300E+02  0.58018282E+02  0.68312650E+02  0.77758696E+02  0.86314953E+02
  0.93942411E+02  0.10060473E+03  0.10626844E+03  0.11090316E+03  0.11448175E+03
  0.11698057E+03  0.11837957E+03  0.11866250E+03  0.11781709E+03  0.11583512E+03
  0.11271259E+03  0.10844983E+03  0.10305158E+03  0.96527063E+02  0.88890066E+02
  0.80158951E+02  0.70356693E+02  0.59510874E+02  0.47653664E+02  0.34821780E+02
  0.21056390E+02  0.64027492E+01 -0.90907772E+01 -0.25351264E+02 -0.41969566E+02
 -0.56284557E+02 -0.44372468E+02 -0.35268691E+02 -0.27420599E+02 -0.20711392E+02
 -0.15079685E+02 -0.10452795E+02 -0.67598625E+01 -0.39341656E+01 -0.19129702E+01
 -0.63777986E+00 -0.58303667E-01  0.20670258E-02  0.48951049E-03 -0.87564178E-04
 -0.44023949E-05  0.26312202E-05 -0.23405938E-06 -0.40728185E-07  0.12979793E-07
 -0.11351331E-08 -0.18945755E-09  0.72964318E-10 -0.10799013E-10 -0.25510068E-12
 Non local Part
           1           2   1.35164824889580     
  -7.39853136410359        10.6718421016767        10.6718421016767     
  -15.3278949454010     
 Reciprocal Space Part
  0.00000000E+00  0.17900408E+01  0.35461451E+01  0.52350403E+01  0.68247680E+01
  0.82853061E+01  0.95891510E+01  0.10711847E+02  0.11632450E+02  0.12333925E+02
  0.12803449E+02  0.13032644E+02  0.13017704E+02  0.12759435E+02  0.12263203E+02
  0.11538786E+02  0.10600138E+02  0.94650754E+01  0.81548845E+01  0.66938635E+01
  0.51088114E+01  0.34284704E+01  0.16829389E+01 -0.96936252E-01 -0.18801723E+01
 -0.36362562E+01 -0.53357299E+01 -0.69507449E+01 -0.84555723E+01 -0.98270603E+01
 -0.11045030E+02 -0.12092603E+02 -0.12956451E+02 -0.13626971E+02 -0.14098378E+02
 -0.14368716E+02 -0.14439793E+02 -0.14317037E+02 -0.14009280E+02 -0.13528485E+02
 -0.12889403E+02 -0.12109197E+02 -0.11207013E+02 -0.10203533E+02 -0.91205038E+01
 -0.79802641E+01 -0.68052690E+01 -0.56176324E+01 -0.44386920E+01 -0.32886053E+01
 -0.21859869E+01 -0.11475914E+01 -0.18804960E+00  0.68034020E+00  0.14477612E+01
  0.21069672E+01  0.26533121E+01  0.30847205E+01  0.34016035E+01  0.36067223E+01
  0.37050064E+01  0.37033308E+01  0.36102605E+01  0.34357678E+01  0.31909322E+01
  0.28876284E+01  0.25382124E+01  0.21552112E+01  0.17510249E+01  0.13376465E+01
  0.92640611E+00  0.52774388E+00  0.15101677E+00 -0.19565887E+00 -0.50552590E+00
 -0.77326560E+00 -0.99503722E+00 -0.11684788E+01 -0.12926713E+01 -0.13680685E+01
 -0.13963966E+01 -0.13805267E+01 -0.13243255E+01 -0.12324895E+01 -0.11103659E+01
 -0.96376848E+00 -0.79879020E+00 -0.62162041E+00 -0.43836941E+00 -0.25490539E+00
 -0.76707301E-01  0.91263390E-01  0.24466939E+00  0.37988113E+00  0.49403604E+00
  0.58507317E+00  0.65174363E+00  0.69359755E+00  0.71094944E+00  0.70482381E+00
 Real Space Part
  0.00000000E+00 -0.81434755E+00 -0.16278770E+01 -0.24397581E+01 -0.32491356E+01
 -0.40551183E+01 -0.48567669E+01 -0.56530836E+01 -0.64430020E+01 -0.72253785E+01
 -0.79989837E+01 -0.87624962E+01 -0.95144967E+01 -0.10253465E+02 -0.10977775E+02
 -0.11685698E+02 -0.12375398E+02 -0.13044940E+02 -0.13692290E+02 -0.14315320E+02
 -0.14911820E+02 -0.15479505E+02 -0.16016024E+02 -0.16518977E+02 -0.16985924E+02
 -0.17414406E+02 -0.17801958E+02 -0.18146130E+02 -0.18444506E+02 -0.18694722E+02
 -0.18894492E+02 -0.19041626E+02 -0.19134055E+02 -0.19169854E+02 -0.19147264E+02
 -0.19064716E+02 -0.18920853E+02 -0.18714554E+02 -0.18444955E+02 -0.18111469E+02
 -0.17713807E+02 -0.17251999E+02 -0.16726406E+02 -0.16137740E+02 -0.15487076E+02
 -0.14775865E+02 -0.14005941E+02 -0.13179531E+02 -0.12299261E+02 -0.11368154E+02
 -0.10389633E+02 -0.93675192E+01 -0.83060216E+01 -0.72097325E+01 -0.60836140E+01
 -0.49329840E+01 -0.37634988E+01 -0.25811326E+01 -0.13921545E+01 -0.20310290E+00
  0.97924335E+00  0.21478957E+01  0.32956896E+01  0.44153201E+01  0.54993795E+01
  0.65403973E+01  0.75308816E+01  0.84633618E+01  0.93304327E+01  0.10124800E+02
  0.10839324E+02  0.11467071E+02  0.12001354E+02  0.12435780E+02  0.12764301E+02
  0.12981253E+02  0.13081402E+02  0.13059989E+02  0.12912770E+02  0.12636054E+02
  0.12226742E+02  0.11682362E+02  0.11001099E+02  0.10181827E+02  0.92241469E+01
  0.81283166E+01  0.68947858E+01  0.55406583E+01  0.41177204E+01  0.26195940E+01
  0.10522401E+01 -0.96781001E-01  0.86078125E-02  0.14978461E-02 -0.47735945E-03
  0.41769414E-04  0.69429010E-05 -0.26924030E-05  0.39915660E-06 -0.27243608E-13
 Reciprocal Space Part
  0.00000000E+00  0.10854400E+01  0.21477952E+01  0.31644481E+01  0.41137056E+01
  0.49752372E+01  0.57304827E+01  0.63630239E+01  0.68589095E+01  0.72069282E+01
  0.73988245E+01  0.74294507E+01  0.72968560E+01  0.70023065E+01  0.65502409E+01
  0.59481589E+01  0.52064487E+01  0.43381557E+01  0.33586985E+01  0.22855389E+01
  0.11378129E+01 -0.64067850E-01 -0.12988372E+01 -0.25448071E+01 -0.37803036E+01
 -0.49840960E+01 -0.61358106E+01 -0.72163204E+01 -0.82081027E+01 -0.90955573E+01
 -0.98652794E+01 -0.10506282E+02 -0.11010164E+02 -0.11371221E+02 -0.11586501E+02
 -0.11655794E+02 -0.11581575E+02 -0.11368886E+02 -0.11025170E+02 -0.10560058E+02
 -0.99851145E+01 -0.93135563E+01 -0.85599352E+01 -0.77398083E+01 -0.68693945E+01
 -0.59652275E+01 -0.50438139E+01 -0.41213016E+01 -0.32131676E+01 -0.23339301E+01
 -0.14968912E+01 -0.71391502E+00  0.47561974E-02  0.65064314E+00  0.12171277E+01
  0.16995070E+01  0.20950030E+01  0.24027307E+01  0.26236250E+01  0.27603314E+01
  0.28170627E+01  0.27994277E+01  0.27142366E+01  0.25692871E+01  0.23731392E+01
  0.21348828E+01  0.18639046E+01  0.15696590E+01  0.12614490E+01  0.94822201E+00
  0.63838340E+00  0.33963330E+00  0.58828020E-01 -0.19813088E+00 -0.42637872E+00
 -0.62214036E+00 -0.78275346E+00 -0.90666315E+00 -0.99338972E+00 -0.10434712E+01
 -0.10583840E+01 -0.10404437E+01 -0.99269092E+00 -0.91876437E+00 -0.82276628E+00
 -0.70912312E+00 -0.58244598E+00 -0.44739399E+00 -0.30854443E+00 -0.17027230E+00
 -0.36642304E-01  0.88684605E-01  0.20252845E+00  0.30224988E+00  0.38579156E+00
  0.45170122E+00  0.49913652E+00  0.52785266E+00  0.53817390E+00  0.53095064E+00
 Real Space Part
  0.00000000E+00 -0.70149233E+00 -0.14021621E+01 -0.21011787E+01 -0.27976951E+01
 -0.34908404E+01 -0.41797121E+01 -0.48633691E+01 -0.55408252E+01 -0.62110433E+01
 -0.68729301E+01 -0.75253319E+01 -0.81670313E+01 -0.87967445E+01 -0.94131200E+01
 -0.10014738E+02 -0.10600113E+02 -0.11167693E+02 -0.11715863E+02 -0.12242952E+02
 -0.12747237E+02 -0.13226949E+02 -0.13680282E+02 -0.14105400E+02 -0.14500453E+02
 -0.14863579E+02 -0.15192925E+02 -0.15486656E+02 -0.15742967E+02 -0.15960103E+02
 -0.16136370E+02 -0.16270152E+02 -0.16359926E+02 -0.16404283E+02 -0.16401938E+02
 -0.16351752E+02 -0.16252745E+02 -0.16104114E+02 -0.15905249E+02 -0.15655747E+02
 -0.15355427E+02 -0.15004342E+02 -0.14602796E+02 -0.14151351E+02 -0.13650841E+02
 -0.13102375E+02 -0.12507354E+02 -0.11867466E+02 -0.11184699E+02 -0.10461337E+02
 -0.96999643E+01 -0.89034631E+01 -0.80750083E+01 -0.72180639E+01 -0.63363741E+01
 -0.54339541E+01 -0.45150779E+01 -0.35842646E+01 -0.26462619E+01 -0.17060283E+01
 -0.76871312E+00  0.16036580E+00  0.10757458E+01  0.19718448E+01  0.28429886E+01
  0.36834398E+01  0.44874269E+01  0.52491767E+01  0.59629457E+01  0.66230533E+01
  0.72239159E+01  0.77600809E+01  0.82262617E+01  0.86173718E+01  0.89285597E+01
  0.91552434E+01  0.92931435E+01  0.93383165E+01  0.92871870E+01  0.91365780E+01
  0.88837405E+01  0.85263817E+01  0.80626894E+01  0.74913598E+01  0.68116240E+01
  0.60232030E+01  0.51259624E+01  0.41321729E+01  0.30801620E+01  0.19650912E+01
  0.79147512E+00 -0.72849400E-01  0.64792505E-02  0.11274549E-02 -0.35931678E-03
  0.31440566E-04  0.52260427E-05 -0.20266187E-05  0.30045213E-06 -0.21149346E-13
 Non local Part
           2           1   1.35164824889580     
  -1.62535072187947     
 Reciprocal Space Part
  0.00000000E+00  0.25352062E-01  0.10074592E+00  0.22421146E+00  0.39252102E+00
  0.60127159E+00  0.84499685E+00  0.11173061E+01  0.14110463E+01  0.17184832E+01
  0.20314967E+01  0.23417847E+01  0.26410717E+01  0.29213151E+01  0.31749042E+01
  0.33948483E+01  0.35749469E+01  0.37099388E+01  0.37956277E+01  0.38289783E+01
  0.38081835E+01  0.37326999E+01  0.36032513E+01  0.34218003E+01  0.31914896E+01
  0.29165541E+01  0.26022075E+01  0.22545055E+01  0.18801907E+01  0.14865220E+01
  0.10810950E+01  0.67165616E+00  0.26591701E+00 -0.12862702E+00 -0.50486923E+00
 -0.85625080E+00 -0.11769029E+01 -0.14617687E+01 -0.17067016E+01 -0.19085394E+01
 -0.20651516E+01 -0.21754593E+01 -0.22394296E+01 -0.22580424E+01 -0.22332347E+01
 -0.21678209E+01 -0.20653950E+01 -0.19302160E+01 -0.17670797E+01 -0.15811825E+01
 -0.13779796E+01 -0.11630412E+01 -0.94191246E+00 -0.71997828E+00 -0.50233862E+00
 -0.29369572E+00 -0.98256499E-01  0.80347939E-01  0.23912430E+00  0.37575955E+00
  0.48864350E+00  0.57687173E+00  0.64022960E+00  0.67915857E+00  0.69470652E+00
  0.68846424E+00  0.66249025E+00  0.61922689E+00  0.56141010E+00  0.49197602E+00
  0.41396699E+00  0.33043972E+00  0.24437822E+00  0.15861360E+00  0.75752858E-01
 -0.18817984E-02 -0.72301883E-01 -0.13388893E+00 -0.18541779E+00 -0.22606686E+00
 -0.25541571E+00 -0.27343078E+00 -0.28044017E+00 -0.27709906E+00 -0.26434705E+00
 -0.24335945E+00 -0.21549405E+00 -0.18223559E+00 -0.14513946E+00 -0.10577672E+00
 -0.65681855E-01 -0.26305007E-01  0.11030290E-01  0.45162634E-01  0.75120864E-01
  0.10014423E+00  0.11969442E+00  0.13345950E+00  0.14135005E+00  0.14348814E+00
 Real Space Part
  0.00000000E+00 -0.20228302E-02 -0.80874463E-02 -0.18182140E-01 -0.32287114E-01
 -0.50374068E-01 -0.72405620E-01 -0.98334585E-01 -0.12810312E+00 -0.16164176E+00
 -0.19886832E+00 -0.23968675E+00 -0.28398594E+00 -0.33163843E+00 -0.38249919E+00
 -0.43640433E+00 -0.49316994E+00 -0.55259093E+00 -0.61443997E+00 -0.67846666E+00
 -0.74439668E+00 -0.81193126E+00 -0.88074680E+00 -0.95049469E+00 -0.10208015E+01
 -0.10912691E+01 -0.11614758E+01 -0.12309767E+01 -0.12993055E+01 -0.13659757E+01
 -0.14304828E+01 -0.14923063E+01 -0.15509125E+01 -0.16057575E+01 -0.16562898E+01
 -0.17019548E+01 -0.17421977E+01 -0.17764681E+01 -0.18042242E+01 -0.18249374E+01
 -0.18380969E+01 -0.18432146E+01 -0.18398303E+01 -0.18275167E+01 -0.18058842E+01
 -0.17745865E+01 -0.17333255E+01 -0.16818562E+01 -0.16199916E+01 -0.15476072E+01
 -0.14646458E+01 -0.13711211E+01 -0.12671219E+01 -0.11528153E+01 -0.10284500E+01
 -0.89435824E+00 -0.75095845E+00 -0.59875635E+00 -0.43834604E+00 -0.27041025E+00
 -0.95720048E-01  0.84866163E-01  0.27040426E+00  0.45986674E+00  0.65214571E+00
  0.84605663E+00  0.10403426E+01  0.12336797E+01  0.14246824E+01  0.16119102E+01
  0.17938744E+01  0.19690461E+01  0.21358640E+01  0.22927434E+01  0.24380849E+01
  0.25702845E+01  0.26877434E+01  0.27888780E+01  0.28721309E+01  0.29359811E+01
  0.29789551E+01  0.29996377E+01  0.29966827E+01  0.29688242E+01  0.29148896E+01
  0.28337872E+01  0.27243940E+01  0.25898555E+01  0.24426112E+01  0.22827940E+01
  0.21087189E+01  0.19188922E+01  0.17120603E+01  0.14871770E+01  0.12434553E+01
  0.98011112E+00  0.69661235E+00  0.39920741E+00  0.49597495E-01 -0.76001362E-14
 PAW radial sets
         355   1.13119482004538     
(5E20.12)                                
 augmentation charges (non sperical)
 -0.442432406046E+00  0.117193445946E+00 -0.276642936660E+00  0.389544267940E+00 -0.147928382035E+00
  0.117193445946E+00 -0.311457636593E-01  0.710038975915E-01 -0.100653384939E+00  0.359362424442E-01
 -0.276642936660E+00  0.710038975915E-01 -0.193499596684E+00  0.267578874039E+00 -0.109896241178E+00
  0.389544267940E+00 -0.100653384939E+00  0.267578874039E+00 -0.371770971010E+00  0.148179721419E+00
 -0.147928382035E+00  0.359362424442E-01 -0.109896241178E+00  0.148179721419E+00 -0.537787571927E-01
 uccopancies in atom
  0.200000000281E+01  0.000000000000E+00  0.000000000000E+00  0.000000000000E+00  0.000000000000E+00
  0.000000000000E+00  0.100000000166E+01  0.000000000000E+00  0.000000000000E+00  0.000000000000E+00
  0.000000000000E+00  0.000000000000E+00  0.200000000319E+01  0.000000000000E+00  0.000000000000E+00
  0.000000000000E+00  0.000000000000E+00  0.000000000000E+00  0.000000000000E+00  0.000000000000E+00
  0.000000000000E+00  0.000000000000E+00  0.000000000000E+00  0.000000000000E+00  0.000000000000E+00
 grid
  0.593104192695E-04  0.612390461428E-04  0.632303871506E-04  0.652864816002E-04  0.674094351120E-04
  0.696014217759E-04  0.718646863777E-04  0.742015466983E-04  0.766143958867E-04  0.791057049114E-04
  0.816780250905E-04  0.843339907047E-04  0.870763216948E-04  0.899078264475E-04  0.928314046710E-04
  0.958500503648E-04  0.989668548861E-04  0.102185010115E-03  0.105507811723E-03  0.108938662551E-03
  0.112481076088E-03  0.116138680077E-03  0.119915220222E-03  0.123814564032E-03  0.127840704775E-03
  0.131997765570E-03  0.136290003613E-03  0.140721814528E-03  0.145297736879E-03  0.150022456808E-03
  0.154900812843E-03  0.159937800847E-03  0.165138579134E-03  0.170508473758E-03  0.176052983957E-03
  0.181777787797E-03  0.187688747976E-03  0.193791917834E-03  0.200093547551E-03  0.206600090545E-03
  0.213318210085E-03  0.220254786113E-03  0.227416922289E-03  0.234811953266E-03  0.242447452202E-03
  0.250331238515E-03  0.258471385892E-03  0.266876230554E-03  0.275554379796E-03  0.284514720803E-03
  0.293766429746E-03  0.303318981184E-03  0.313182157764E-03  0.323366060241E-03  0.333881117820E-03
  0.344738098840E-03  0.355948121798E-03  0.367522666737E-03  0.379473587002E-03  0.391813121381E-03
  0.404553906634E-03  0.417708990439E-03  0.431291844751E-03  0.445316379601E-03  0.459796957337E-03
  0.474748407337E-03  0.490186041191E-03  0.506125668386E-03  0.522583612493E-03  0.539576727884E-03
  0.557122416996E-03  0.575238648146E-03  0.593943973939E-03  0.613257550262E-03  0.633199155907E-03
  0.653789212818E-03  0.675048807014E-03  0.696999710177E-03  0.719664401951E-03  0.743066092959E-03
  0.767228748579E-03  0.792177113481E-03  0.817936736971E-03  0.844533999155E-03  0.871996137953E-03
  0.900351276995E-03  0.929628454421E-03  0.959857652619E-03  0.991069828931E-03  0.102329694735E-02
  0.105657201126E-02  0.109092909725E-02  0.112640338995E-02  0.116303121816E-02  0.120085009197E-02
  0.123989874120E-02  0.128021715510E-02  0.132184662323E-02  0.136482977782E-02  0.140921063736E-02
  0.145503465173E-02  0.150234874874E-02  0.155120138215E-02  0.160164258132E-02  0.165372400246E-02
  0.170749898148E-02  0.176302258867E-02  0.182035168505E-02  0.187954498062E-02  0.194066309450E-02
  0.200376861697E-02  0.206892617361E-02  0.213620249143E-02  0.220566646728E-02  0.227738923833E-02
  0.235144425497E-02  0.242790735601E-02  0.250685684633E-02  0.258837357713E-02  0.267254102866E-02
  0.275944539574E-02  0.284917567603E-02  0.294182376119E-02  0.303748453096E-02  0.313625595030E-02
  0.323823916981E-02  0.334353862919E-02  0.345226216430E-02  0.356452111755E-02  0.368043045190E-02
  0.380010886864E-02  0.392367892894E-02  0.405126717932E-02  0.418300428132E-02  0.431902514523E-02
  0.445946906830E-02  0.460447987739E-02  0.475420607623E-02  0.490880099753E-02  0.506842296001E-02
  0.523323543050E-02  0.540340719138E-02  0.557911251339E-02  0.576053133414E-02  0.594784944236E-02
  0.614125866815E-02  0.634095707948E-02  0.654714918495E-02  0.676004614330E-02  0.697986597963E-02
  0.720683380865E-02  0.744118206526E-02  0.768315074254E-02  0.793298763757E-02  0.819094860516E-02
  0.845729781989E-02  0.873230804661E-02  0.901626091984E-02  0.930944723213E-02  0.961216723189E-02
  0.992473093085E-02  0.102474584215E-01  0.105806802051E-01  0.109247375298E-01  0.112799827404E-01
  0.116467796390E-01  0.120255038577E-01  0.124165432432E-01  0.128202982540E-01  0.132371823705E-01
  0.136676225184E-01  0.141120595062E-01  0.145709484760E-01  0.150447593704E-01  0.155339774131E-01
  0.160391036060E-01  0.165606552426E-01  0.170991664373E-01  0.176551886726E-01  0.182292913640E-01
  0.188220624426E-01  0.194341089579E-01  0.200660576991E-01  0.207185558368E-01  0.213922715861E-01
  0.220878948909E-01  0.228061381302E-01  0.235477368478E-01  0.243134505057E-01  0.251040632615E-01
  0.259203847718E-01  0.267632510211E-01  0.276335251782E-01  0.285320984797E-01  0.294598911434E-01
  0.304178533100E-01  0.314069660163E-01  0.324282422004E-01  0.334827277382E-01  0.345715025150E-01
  0.356956815315E-01  0.368564160451E-01  0.380548947493E-01  0.392923449912E-01  0.405700340279E-01
  0.418892703247E-01  0.432514048947E-01  0.446578326828E-01  0.461099939940E-01  0.476093759683E-01
  0.491575141039E-01  0.507559938296E-01  0.524064521282E-01  0.541105792133E-01  0.558701202599E-01
  0.576868771919E-01  0.595627105270E-01  0.614995412825E-01  0.634993529424E-01  0.655641934886E-01
  0.676961774982E-01  0.698974883092E-01  0.721703802561E-01  0.745171809789E-01  0.769402938067E-01
  0.794422002187E-01  0.820254623858E-01  0.846927257941E-01  0.874467219544E-01  0.902902711995E-01
  0.932262855722E-01  0.962577718079E-01  0.993878344133E-01  0.102619678846E+00  0.105956614797E+00
  0.109402059581E+00  0.112959541634E+00  0.116632704128E+00  0.120425308704E+00  0.124341239318E+00
  0.128384506227E+00  0.132559250090E+00  0.136869746208E+00  0.141320408906E+00  0.145915796053E+00
  0.150660613725E+00  0.155559721031E+00  0.160618135085E+00  0.165841036144E+00  0.171233772917E+00
  0.176801868036E+00  0.182551023718E+00  0.188487127600E+00  0.194616258772E+00  0.200944693999E+00
  0.207478914152E+00  0.214225610844E+00  0.221191693281E+00  0.228384295341E+00  0.235810782876E+00
  0.243478761259E+00  0.251396083170E+00  0.259570856638E+00  0.268011453346E+00  0.276726517202E+00
  0.285724973193E+00  0.295016036525E+00  0.304609222058E+00  0.314514354052E+00  0.324741576228E+00
  0.335301362156E+00  0.346204525979E+00  0.357462233489E+00  0.369086013563E+00  0.381087769967E+00
  0.393479793549E+00  0.406274774823E+00  0.419485816969E+00  0.433126449247E+00  0.447210640858E+00
  0.461752815245E+00  0.476767864864E+00  0.492271166440E+00  0.508278596706E+00  0.524806548671E+00
  0.541871948401E+00  0.559492272358E+00  0.577685565293E+00  0.596470458727E+00  0.615866190033E+00
  0.635892622134E+00  0.656570263848E+00  0.677920290886E+00  0.699964567541E+00  0.722725669080E+00
  0.746226904858E+00  0.770492342196E+00  0.795546831021E+00  0.821416029319E+00  0.848126429410E+00
  0.875705385078E+00  0.904181139583E+00  0.933582854586E+00  0.963940640012E+00  0.995285584888E+00
  0.102764978917E+01  0.106106639665E+01  0.109556962883E+01  0.113119482005E+01  0.116797845361E+01
  0.120595819917E+01  0.124517295131E+01  0.128566286936E+01  0.132746941853E+01  0.137063541239E+01
  0.141520505669E+01  0.146122399462E+01  0.150873935362E+01  0.155779979356E+01  0.160845555661E+01
  0.166075851870E+01  0.171476224265E+01  0.177052203297E+01  0.182809499257E+01  0.188754008119E+01
  0.194891817579E+01  0.201229213291E+01  0.207772685302E+01  0.214528934698E+01  0.221504880471E+01
  0.228707666596E+01  0.236144669358E+01  0.243823504897E+01  0.251752037011E+01  0.259938385210E+01
  0.268390933030E+01  0.277118336619E+01  0.286129533600E+01  0.295433752227E+01  0.305040520832E+01
  0.314959677586E+01  0.325201380573E+01  0.335776118191E+01  0.346694719896E+01  0.357968367289E+01
  0.369608605572E+01  0.381627355364E+01  0.394036924917E+01  0.406850022713E+01  0.420079770485E+01
  0.433739716651E+01  0.447843850188E+01  0.462406614962E+01  0.477442924517E+01  0.492968177348E+01
 aepotential
  0.952631262947E+04  0.964448138835E+04  0.975456314060E+04  0.985578578784E+04  0.994740372987E+04
  0.100287044705E+05  0.100990179818E+05  0.101577253464E+05  0.102042677791E+05  0.102381545254E+05
  0.102589708747E+05  0.102663847136E+05  0.102601525221E+05  0.102401243939E+05  0.102062467985E+05
  0.101585655727E+05  0.100972259256E+05  0.100224714335E+05  0.993464342927E+04  0.983417418265E+04
  0.972158474464E+04  0.959747568171E+04  0.946252259882E+04  0.931746448489E+04  0.916309529630E+04
  0.900025525040E+04  0.882981833154E+04  0.865268295046E+04  0.846976125726E+04  0.828196817288E+04
  0.809021284233E+04  0.789538783378E+04  0.769836204312E+04  0.749997217407E+04  0.730101652903E+04
  0.710224927888E+04  0.690437570831E+04  0.670804876723E+04  0.651386661194E+04  0.632237075501E+04
  0.613404566874E+04  0.594931878901E+04  0.576856148700E+04  0.559209061640E+04  0.542017062776E+04
  0.525301616256E+04  0.509079496559E+04  0.493363110624E+04  0.478160835774E+04  0.463477369219E+04
  0.449314080829E+04  0.435669363360E+04  0.422538975023E+04  0.409916370035E+04  0.397793013797E+04
  0.386158680055E+04  0.375001728152E+04  0.364309359358E+04  0.354067851117E+04  0.344262769856E+04
  0.334879162050E+04  0.325901723952E+04  0.317314952253E+04  0.309103273835E+04  0.301251160499E+04
  0.293743223948E+04  0.286564299111E+04  0.279699509712E+04  0.273134325799E+04  0.266854606111E+04
  0.260846634603E+04  0.255097143159E+04  0.249593332442E+04  0.244322882549E+04  0.239273957820E+04
  0.234435210511E+04  0.229795774843E+04  0.225345264280E+04  0.221073759882E+04  0.216971800195E+04
  0.213030369277E+04  0.209240881408E+04  0.205595166839E+04  0.202085455591E+04  0.198704361430E+04
  0.195444865816E+04  0.192300301115E+04  0.189264334400E+04  0.186330951589E+04  0.183494441959E+04
  0.180749382074E+04  0.178090621973E+04  0.175513270326E+04  0.173012680550E+04  0.170584438185E+04
  0.168224347754E+04  0.165928421042E+04  0.163692865512E+04  0.161514073507E+04  0.159388611729E+04
  0.157313212009E+04  0.155284761524E+04  0.153300293966E+04  0.151356982163E+04  0.149452129404E+04
  0.147583162783E+04  0.145747626086E+04  0.143943173575E+04  0.142167563432E+04  0.140418653116E+04
  0.138694393126E+04  0.136992822924E+04  0.135312065417E+04  0.133650323996E+04  0.132005877246E+04
  0.130377076313E+04  0.128762341125E+04  0.127160157188E+04  0.125569073142E+04  0.123987697816E+04
  0.122414698050E+04  0.120848796634E+04  0.119288770247E+04  0.117733447940E+04  0.116181709643E+04
  0.114632484918E+04  0.113084751887E+04  0.111537536451E+04  0.109989911635E+04  0.108440997123E+04
  0.106889959107E+04  0.105336010195E+04  0.103778409603E+04  0.102216463605E+04  0.100649526093E+04
  0.990769994451E+03  0.974983355983E+03  0.959130374023E+03  0.943206601583E+03  0.927208135304E+03
  0.911131636771E+03  0.894974357278E+03  0.878734165591E+03  0.862409579803E+03  0.845999802054E+03
  0.829504757944E+03  0.812925139537E+03  0.796262452796E+03  0.779519069022E+03  0.762698280865E+03
  0.745804361797E+03  0.728842629274E+03  0.711819510525E+03  0.694742609608E+03  0.677620774105E+03
  0.660464158985E+03  0.643284284171E+03  0.626094081741E+03  0.608907927156E+03  0.591741648104E+03
  0.574612503223E+03  0.557539122206E+03  0.540541398497E+03  0.523640326310E+03  0.506857776388E+03
  0.490216209228E+03  0.473738333086E+03  0.457446726543E+03  0.441363463761E+03  0.425509804718E+03
  0.409906041946E+03  0.394571626243E+03  0.379525719415E+03  0.364788329084E+03  0.350382149321E+03
  0.336335137353E+03  0.322683676855E+03  0.309475906531E+03  0.296774459419E+03  0.284657544703E+03
  0.273217223522E+03  0.262554032239E+03  0.252767229451E+03  0.243942678589E+03  0.236139217881E+03
  0.229377103916E+03  0.223630871903E+03  0.218828204507E+03  0.214854852490E+03  0.211564365701E+03
  0.208790743157E+03  0.206362014478E+03  0.204112889969E+03  0.201894837465E+03  0.199582449436E+03
  0.197075844623E+03  0.194299812664E+03  0.191200969231E+03  0.187744151207E+03  0.183908870415E+03
  0.179686195401E+03  0.175076159760E+03  0.170085682692E+03  0.164726969503E+03  0.159016355721E+03
  0.152973546287E+03  0.146621190811E+03  0.139984720490E+03  0.133092369162E+03  0.125975297682E+03
  0.118667742472E+03  0.111207111035E+03  0.103633952598E+03  0.959917520068E+02  0.883265365717E+02
  0.806863655412E+02  0.731208986601E+02  0.656813929673E+02  0.584216000930E+02  0.513999877556E+02
  0.446832991778E+02  0.383505334821E+02  0.324951007757E+02  0.272218111342E+02  0.226355819968E+02
  0.188210696855E+02  0.158165179917E+02  0.135893005505E+02  0.120254114095E+02  0.109425758354E+02
  0.101314445845E+02  0.940447348483E+01  0.862640292175E+01  0.771355776534E+01  0.661421688007E+01
  0.528978498719E+01  0.370655589109E+01  0.183628460088E+01 -0.340429876606E+00 -0.283219529970E+01
 -0.563732949249E+01 -0.874588473243E+01 -0.121419196394E+02 -0.158052066595E+02 -0.197121056075E+02
 -0.238356583862E+02 -0.281450906849E+02 -0.326049582888E+02 -0.371742461413E+02 -0.418058712320E+02
 -0.464472502382E+02 -0.510427534452E+02 -0.555387033675E+02 -0.598905766371E+02 -0.640695706681E+02
 -0.680614654403E+02 -0.718466261986E+02 -0.753536641009E+02 -0.784021705238E+02 -0.806919761208E+02
 -0.819152510457E+02 -0.819963953197E+02 -0.812809655665E+02 -0.803700153411E+02 -0.796837238899E+02
 -0.792925523653E+02 -0.790989337407E+02 -0.790178881667E+02 -0.790255948624E+02 -0.791412015460E+02
 -0.793971216906E+02 -0.798181215627E+02 -0.804134235133E+02 -0.811781763936E+02 -0.820984705271E+02
 -0.831559595743E+02 -0.843307268937E+02 -0.856025543494E+02 -0.869511792018E+02 -0.883560811578E+02
 -0.897961551076E+02 -0.912494997533E+02 -0.926934488490E+02 -0.941049207464E+02 -0.954610762117E+02
 -0.967401177634E+02 -0.979218278454E+02 -0.989876695893E+02 -0.999195685896E+02 -0.100698064703E+03
 -0.101300732658E+03 -0.101703278977E+03 -0.101885157063E+03 -0.101838399317E+03 -0.101574094429E+03
 -0.101120737635E+03 -0.100513655791E+03 -0.997851795892E+02 -0.989574389058E+02 -0.980435041284E+02
 -0.970506850500E+02 -0.959837745044E+02 -0.948469269925E+02 -0.936443824960E+02 -0.923806142708E+02
 -0.910602997969E+02 -0.896882884177E+02 -0.882695821421E+02 -0.868093094610E+02 -0.853126578425E+02
 -0.837847533567E+02 -0.822304895352E+02 -0.806543336626E+02 -0.790601343352E+02 -0.774509849711E+02
 -0.758291898874E+02 -0.741963761522E+02 -0.725537651001E+02 -0.709025670052E+02 -0.692444211960E+02
 -0.675817745118E+02 -0.659181028009E+02 -0.642579295397E+02 -0.626066551705E+02 -0.609702476343E+02
 -0.593548197027E+02 -0.577660213393E+02 -0.562080642857E+02 -0.546822528741E+02 -0.531853847916E+02
 -0.517093202397E+02 -0.502435255983E+02 -0.487807839788E+02 -0.473225202946E+02 -0.458787874838E+02
 -0.444628174404E+02 -0.430854092474E+02 -0.417530890821E+02 -0.404691851589E+02 -0.392353810944E+02
 -0.380523846022E+02 -0.369195487547E+02 -0.358344487979E+02 -0.347926947226E+02 -0.337886822819E+02
 -0.328166268301E+02 -0.318715126229E+02 -0.309496003493E+02 -0.300484990618E+02 -0.291669839945E+02
 -0.283047217549E+02 -0.274620001645E+02 -0.266394986310E+02 -0.258381005815E+02 -0.250587372427E+02
 core charge-density
  0.241912770226E-01  0.256414572997E-01  0.271782019361E-01  0.288066439430E-01  0.305322174751E-01
  0.323606751942E-01  0.342981066059E-01  0.363509574204E-01  0.385260499927E-01  0.408306048977E-01
  0.432722637012E-01  0.458591129882E-01  0.485997097136E-01  0.515031079443E-01  0.545788870625E-01
  0.578371815066E-01  0.612887121243E-01  0.649448192218E-01  0.688174973902E-01  0.729194322002E-01
  0.772640388522E-01  0.818655028798E-01  0.867388230025E-01  0.918998562315E-01  0.973653653319E-01
  0.103153068752E+00  0.109281693131E+00  0.115771028502E+00  0.122641986314E+00  0.129916660384E+00
  0.137618390919E+00  0.145771831737E+00  0.154403020801E+00  0.163539454231E+00  0.173210163900E+00
  0.183445798786E+00  0.194278710189E+00  0.205743040983E+00  0.217874819029E+00  0.230712054903E+00
  0.244294844074E+00  0.258665473679E+00  0.273868534037E+00  0.289951035026E+00  0.306962527472E+00
  0.324955229660E+00  0.343984159101E+00  0.364107269651E+00  0.385385594093E+00  0.407883392269E+00
  0.431668304826E+00  0.456811512648E+00  0.483387901997E+00  0.511476235389E+00  0.541159328184E+00
  0.572524230866E+00  0.605662416928E+00  0.640669976261E+00  0.677647813900E+00  0.716701853923E+00
  0.757943248276E+00  0.801488590201E+00  0.847460131925E+00  0.895986006153E+00  0.947200450886E+00
  0.100124403694E+01  0.105826389752E+01  0.111841395902E+01  0.118185517218E+01  0.124875574265E+01
  0.131929135967E+01  0.139364542176E+01  0.147200925787E+01  0.155458234245E+01  0.164157250268E+01
  0.173319611583E+01  0.182967829474E+01  0.193125305887E+01  0.203816348848E+01  0.215066185896E+01
  0.226900975234E+01  0.239347814250E+01  0.252434745042E+01  0.266190756565E+01  0.280645782947E+01
  0.295830697540E+01  0.311777302194E+01  0.328518311226E+01  0.346087329529E+01  0.364518824203E+01
  0.383848089081E+01  0.404111201468E+01  0.425344970377E+01  0.447586875513E+01  0.470874996222E+01
  0.495247929577E+01  0.520744696760E+01  0.547404636847E+01  0.575267287102E+01  0.604372248853E+01
  0.634759038001E+01  0.666466919233E+01  0.699534722973E+01  0.734000644161E+01  0.769902021917E+01
  0.807275099248E+01  0.846154761930E+01  0.886574255840E+01  0.928564882032E+01  0.972155669001E+01
  0.101737302169E+02  0.106424034693E+02  0.111277765530E+02  0.116300113931E+02  0.121492272857E+02
  0.126854962229E+02  0.132388380025E+02  0.138092151352E+02  0.143965275669E+02  0.150006072370E+02
  0.156212125015E+02  0.162580224506E+02  0.169106311622E+02  0.175785419327E+02  0.182611615400E+02
  0.189577945954E+02  0.196676380523E+02  0.203897759472E+02  0.211231744549E+02  0.218666773522E+02
  0.226190019896E+02  0.233787358829E+02  0.241443340410E+02  0.249141171598E+02  0.256862708155E+02
  0.264588458016E+02  0.272297597560E+02  0.279968002344E+02  0.287576293852E+02  0.295097903852E+02
  0.302507157935E+02  0.309777379772E+02  0.316881017559E+02  0.323789794012E+02  0.330474881140E+02
  0.336907100803E+02  0.343057151863E+02  0.348895864402E+02  0.354394481149E+02  0.359524965848E+02
  0.364260337793E+02  0.368575031262E+02  0.372445277922E+02  0.375849509647E+02  0.378768778454E+02
  0.381187189457E+02  0.383092341937E+02  0.384475772750E+02  0.385333395400E+02  0.385665927227E+02
  0.385479296261E+02  0.384785018485E+02  0.383600535435E+02  0.381949501421E+02  0.379862009077E+02
  0.377374741578E+02  0.374531039661E+02  0.371380871638E+02  0.367980694943E+02  0.364393198382E+02
  0.360686915250E+02  0.356935698886E+02  0.353218053990E+02  0.349616319259E+02  0.346215699527E+02
  0.343103148639E+02  0.340366107787E+02  0.338091107834E+02  0.336362248370E+02  0.335259570688E+02
  0.334857346373E+02  0.335222309755E+02  0.336411860973E+02  0.338472284082E+02  0.341437014152E+02
  0.345325001862E+02  0.350139223587E+02  0.355865388147E+02  0.362470892675E+02  0.369904080052E+02
  0.378093848771E+02  0.386949662795E+02  0.396362003839E+02  0.406203301410E+02  0.416329366908E+02
  0.426581347221E+02  0.436788200594E+02  0.446769683244E+02  0.456339819366E+02  0.465310810024E+02
  0.473497318413E+02  0.480721050525E+02  0.486815532009E+02  0.491630964651E+02  0.495039030102E+02
  0.496937495009E+02  0.497254461458E+02  0.495952100334E+02  0.493029703739E+02  0.488525896762E+02
  0.482519859314E+02  0.475131425984E+02  0.466519956247E+02  0.456881899013E+02  0.446447014069E+02
  0.435473257865E+02  0.424240391237E+02  0.413042420356E+02  0.402179037499E+02  0.391946282518E+02
  0.382626696511E+02  0.374479283249E+02  0.367729629162E+02  0.362560557148E+02  0.359103702271E+02
  0.357432398038E+02  0.357556248021E+02  0.359417726108E+02  0.362891122941E+02  0.367784021329E+02
  0.373841492675E+02  0.380752933805E+02  0.388161413316E+02  0.395675236932E+02  0.402881358964E+02
  0.409360192145E+02  0.414701288447E+02  0.418519283806E+02  0.420469438957E+02  0.420262084126E+02
  0.417675293698E+02  0.412565175311E+02  0.404873249656E+02  0.394630515743E+02  0.381957935457E+02
  0.367063225496E+02  0.350234008306E+02  0.331827540052E+02  0.312257396299E+02  0.291977648203E+02
  0.271465196654E+02  0.251201041957E+02  0.231651344587E+02  0.213249169614E+02  0.196377793980E+02
  0.181356382076E+02  0.168428688890E+02  0.157755229098E+02  0.149409101160E+02  0.143375359023E+02
  0.139553734405E+02  0.137764712884E+02  0.137759205446E+02  0.139232137476E+02  0.141839148228E+02
  0.145214176559E+02  0.148986240928E+02  0.152794801215E+02  0.156303687682E+02  0.159213323711E+02
  0.161270760460E+02  0.162277054632E+02  0.162091661415E+02  0.160633737917E+02  0.157880497268E+02
  0.153862960320E+02  0.148659593975E+02  0.142388400844E+02  0.135198047316E+02  0.127258595678E+02
  0.118752353812E+02  0.109865282198E+02  0.100779302504E+02  0.916657704511E+01  0.826802726084E+01
  0.739588139486E+01  0.656153853755E+01  0.577408125094E+01  0.504027788894E+01  0.436467782819E+01
  0.374978136904E+01  0.319626317886E+01  0.270323200795E+01  0.226851270371E+01  0.188893742071E+01
  0.156063079236E+01  0.127927354745E+01  0.104032270436E+01  0.839197661215E+00  0.671417350430E+00
  0.532702713123E+00  0.419049229165E+00  0.326774861360E+00  0.252547658411E+00  0.193396624173E+00
  0.146709138142E+00  0.110217970160E+00  0.819806551574E-01  0.603536654221E-01  0.439634609754E-01
  0.316761388481E-01  0.225670577130E-01  0.158914959419E-01  0.110571148179E-01  0.759874755469E-02
  0.515582075760E-02  0.345253815272E-02  0.228081596905E-02  0.148585313341E-02  0.954144324858E-03
  0.603695933612E-03  0.376179664375E-03  0.230751329960E-03  0.139269077592E-03  0.826621041406E-04
  0.482246264732E-04  0.276376967324E-04  0.155509889803E-04  0.858591461887E-05  0.464876977867E-05
  0.246699363527E-05  0.128243891007E-05  0.652682288115E-06  0.325017952869E-06  0.158260539757E-06
  0.752988020555E-07  0.349797421625E-07  0.158525049456E-07  0.700247413571E-08  0.301216542158E-08
  0.126056308630E-08  0.512719112600E-09  0.202480793236E-09  0.775588333121E-10  0.287853642532E-10
  0.103407526150E-10  0.359182549972E-11  0.120502726980E-11  0.390052469434E-12  0.121676452139E-12
  0.365379580668E-13  0.105490828061E-13  0.292466292558E-14  0.777612965507E-15  0.198011393436E-15
 kinetic energy-density
  0.205015755348E+06  0.204787995787E+06  0.204585679655E+06  0.204409434837E+06  0.204259905984E+06
  0.204137754598E+06  0.204043659769E+06  0.203978320251E+06  0.203942454949E+06  0.203936805019E+06
  0.203962135396E+06  0.204019235754E+06  0.204108924209E+06  0.204232046224E+06  0.204389479824E+06
  0.204582133202E+06  0.204810954572E+06  0.205076923175E+06  0.205381063680E+06  0.205724438323E+06
  0.206108153504E+06  0.206533365007E+06  0.207001276072E+06  0.207513137636E+06  0.208070259005E+06
  0.208674002657E+06  0.209325790108E+06  0.210027103926E+06  0.210779488131E+06  0.211584554852E+06
  0.212443982432E+06  0.213359520691E+06  0.214332992220E+06  0.215366295584E+06  0.216461408678E+06
  0.217620389714E+06  0.218845381272E+06  0.220138614081E+06  0.221502408257E+06  0.222939177803E+06
  0.224451434059E+06  0.226041788696E+06  0.227712957728E+06  0.229467765248E+06  0.231309147853E+06
  0.233240158355E+06  0.235263970657E+06  0.237383884170E+06  0.239603328668E+06  0.241925869306E+06
  0.244355211811E+06  0.246895207869E+06  0.249549860698E+06  0.252323330804E+06  0.255219941901E+06
  0.258244187032E+06  0.261400734781E+06  0.264694435735E+06  0.268130328973E+06  0.271713648841E+06
  0.275449831523E+06  0.279344522083E+06  0.283403581544E+06  0.287633093385E+06  0.292039371159E+06
  0.296628964998E+06  0.301408668922E+06  0.306385527688E+06  0.311566843425E+06  0.316960182159E+06
  0.322573380840E+06  0.328414552946E+06  0.334492094325E+06  0.340814689235E+06  0.347391314498E+06
  0.354231244894E+06  0.361344056129E+06  0.368739628468E+06  0.376428149197E+06  0.384420113495E+06
  0.392726324916E+06  0.401357894563E+06  0.410326238796E+06  0.419643075640E+06  0.429320418953E+06
  0.439370571546E+06  0.449806116061E+06  0.460639902858E+06  0.471885036446E+06  0.483554858810E+06
  0.495662929504E+06  0.508223002953E+06  0.521249002236E+06  0.534754988755E+06  0.548755128091E+06
  0.563263651637E+06  0.578294812954E+06  0.593862839673E+06  0.609981879516E+06  0.626665940878E+06
  0.643928826328E+06  0.661784062200E+06  0.680244817434E+06  0.699323817815E+06  0.719033253152E+06
  0.739384672605E+06  0.760388877714E+06  0.782055800403E+06  0.804394377351E+06  0.827412410801E+06
  0.851116424254E+06  0.875511504733E+06  0.900601137732E+06  0.926387031918E+06  0.952868934070E+06
  0.980044433749E+06  0.100790876114E+07  0.103645457281E+07  0.106567173187E+07  0.109554707907E+07
  0.112606419744E+07  0.115720317147E+07  0.118894034137E+07  0.122124805447E+07  0.125409441520E+07
  0.128744303613E+07  0.132125279116E+07  0.135547757457E+07  0.139006606827E+07  0.142496152003E+07
  0.146010153666E+07  0.149541789600E+07  0.153083638060E+07  0.156627663935E+07  0.160165208006E+07
  0.163686979882E+07  0.167183055105E+07  0.170642877000E+07  0.174055263749E+07  0.177408421365E+07
  0.180689963042E+07  0.183886935542E+07  0.186985853059E+07  0.189972739250E+07  0.192833177781E+07
  0.195552371933E+07  0.198115213635E+07  0.200506362222E+07  0.202710333141E+07  0.204711596716E+07
  0.206494686963E+07  0.208044320223E+07  0.209345523354E+07  0.210383770895E+07  0.211145130513E+07
  0.211616415769E+07  0.211785345058E+07  0.211640705272E+07  0.211172518578E+07  0.210372210354E+07
  0.209232776166E+07  0.207748945369E+07  0.205917338735E+07  0.203736617299E+07  0.201207619433E+07
  0.198333483071E+07  0.195119749908E+07  0.191574448401E+07  0.187708152448E+07  0.183534012767E+07
  0.179067758212E+07  0.174327664562E+07  0.169334488702E+07  0.164111366569E+07  0.158683673759E+07
  0.153078848222E+07  0.147326175102E+07  0.141456534326E+07  0.135502112274E+07  0.129496079523E+07
  0.123472234513E+07  0.117464635924E+07  0.111507180592E+07  0.105633200358E+07  0.998750329264E+06
  0.942635982904E+06  0.888279849735E+06  0.835950549574E+06  0.785890752650E+06  0.738313833525E+06
  0.693400927242E+06  0.651298446038E+06  0.612116110025E+06  0.575925540288E+06  0.542759456874E+06
  0.512611516443E+06  0.485436814318E+06  0.461153063434E+06  0.439642448404E+06  0.420754137275E+06
  0.404307417473E+06  0.390095406235E+06  0.377889270924E+06  0.367442880228E+06  0.358497795578E+06
  0.350788501505E+06  0.344047765644E+06  0.338012013406E+06  0.332426598363E+06  0.327050848704E+06
  0.321662770755E+06  0.316063294878E+06  0.310079955152E+06  0.303569903754E+06  0.296422173633E+06
  0.288559118847E+06  0.279936981828E+06  0.270545559825E+06  0.260406968833E+06  0.249573530923E+06
  0.238124838144E+06  0.226164071331E+06  0.213813674642E+06  0.201210508800E+06  0.188500631013E+06
  0.175833870728E+06  0.163358466965E+06  0.151215834402E+06  0.139535956749E+06  0.128433296004E+06
  0.118003521260E+06  0.108321152643E+06  0.994380237351E+05  0.913826274066E+05  0.841603270029E+05
  0.777544184270E+05  0.721279967395E+05  0.672265385530E+05  0.629810709566E+05  0.593117659878E+05
  0.561317785512E+05  0.533511380563E+05  0.508805095202E+05  0.486346571169E+05  0.465354698865E+05
  0.445144414487E+05  0.425145306891E+05  0.404913657428E+05  0.384137861896E+05  0.362637476634E+05
  0.340356374053E+05  0.317350695140E+05  0.293772470409E+05  0.269849956538E+05  0.245865935472E+05
  0.222135379732E+05  0.198984139301E+05  0.176729532334E+05  0.155663882680E+05  0.136040681880E+05
  0.118061711721E+05  0.101867316713E+05  0.875308999423E+04  0.750608186108E+04  0.644084844567E+04
  0.554789795880E+04  0.481390987853E+04  0.422264228715E+04  0.375582997189E+04  0.339413536303E+04
  0.311806744114E+04  0.290881192819E+04  0.274893426725E+04  0.262292799469E+04  0.251759118648E+04
  0.242222671598E+04  0.232867632661E+04  0.223121064756E+04  0.212630540926E+04  0.201233757851E+04
  0.188923510947E+04  0.175811023650E+04  0.162090425570E+04  0.148005704974E+04  0.133822331909E+04
  0.119803611782E+04  0.106193083615E+04  0.932010782828E+03  0.809976240028E+03  0.697090759308E+03
  0.594184649890E+03  0.501683479243E+03  0.419651507616E+03  0.347843088307E+03  0.285759602242E+03
  0.232711140582E+03  0.187884098596E+03  0.150401380158E+03  0.119373867524E+03  0.939402819954E+02
  0.732917812019E+02  0.566870667430E+02  0.434602486246E+02  0.330235646541E+02  0.248663912740E+02
  0.185516046396E+02  0.137101455876E+02  0.100344949667E+02  0.727163085008E+01  0.521590847881E+01
  0.370218427021E+01  0.259940239286E+01  0.180477809506E+01  0.123864562638E+01  0.839988600502E+00
  0.562634420978E+00  0.372069817927E+00  0.242819312948E+00  0.156320549152E+00  0.992281820237E-01
  0.620798328992E-01  0.382622248988E-01  0.232218590393E-01  0.138715997660E-01  0.815163448445E-02
  0.471003839733E-02  0.267438187350E-02  0.149135878962E-02  0.816253263877E-03  0.438193453470E-03
  0.230579747872E-03  0.118856836446E-03  0.599837406789E-04  0.296226406800E-04  0.143073954444E-04
  0.675425513133E-05  0.311434595731E-05  0.140147287011E-05  0.614976328147E-06  0.262900676761E-06
  0.109387091846E-06  0.442528673048E-07  0.173883822811E-07  0.662900262226E-08  0.244924109726E-08
  0.876055490150E-09  0.303020337422E-09  0.101245277258E-09  0.326406816798E-10  0.101422748483E-10
  0.303389862236E-11  0.872645983283E-12  0.241051166196E-12  0.638639471803E-13  0.162067310240E-13
 mkinetic energy-density pseudized
  0.132813939391E-04  0.141591931114E-04  0.150950081351E-04  0.160926734167E-04  0.171562767877E-04
  0.182901762545E-04  0.194990178543E-04  0.207877546920E-04  0.221616672352E-04  0.236263849501E-04
  0.251879093677E-04  0.268526386746E-04  0.286273939289E-04  0.305194470084E-04  0.325365504070E-04
  0.346869689991E-04  0.369795139046E-04  0.394235785909E-04  0.420291773625E-04  0.448069863927E-04
  0.477683874687E-04  0.509255146270E-04  0.542913038712E-04  0.578795461763E-04  0.617049439955E-04
  0.657831715017E-04  0.701309388113E-04  0.747660604517E-04  0.797075283543E-04  0.849755896723E-04
  0.905918297409E-04  0.965792605209E-04  0.102962414888E-03  0.109767447152E-03  0.117022240224E-03
  0.124756519862E-03  0.133001976466E-03  0.141792394933E-03  0.151163793079E-03  0.161154569221E-03
  0.171805659514E-03  0.183160705673E-03  0.195266233798E-03  0.208171845004E-03  0.221930418660E-03
  0.236598329052E-03  0.252235676371E-03  0.268906532967E-03  0.286679205876E-03  0.305626516702E-03
  0.325826099990E-03  0.347360721327E-03  0.370318616464E-03  0.394793852845E-03  0.420886715040E-03
  0.448704115647E-03  0.478360033349E-03  0.509975979927E-03  0.543681498138E-03  0.579614692494E-03
  0.617922795126E-03  0.658762769046E-03  0.702301951277E-03  0.748718738489E-03  0.798203317949E-03
  0.850958446782E-03  0.907200282736E-03  0.967159269841E-03  0.103108108262E-02  0.109922763269E-02
  0.117187814189E-02  0.124933028634E-02  0.133190141610E-02  0.141992985546E-02  0.151377628914E-02
  0.161382524009E-02  0.172048664500E-02  0.183419753394E-02  0.195542382092E-02  0.208466221288E-02
  0.222244224482E-02  0.236932844939E-02  0.252592266988E-02  0.269286652612E-02  0.287084404327E-02
  0.306058445440E-02  0.326286518822E-02  0.347851505433E-02  0.370841763893E-02  0.395351492493E-02
  0.421481115131E-02  0.449337692753E-02  0.479035361983E-02  0.510695802738E-02  0.544448736747E-02
  0.580432459010E-02  0.618794404380E-02  0.659691751585E-02  0.703292067159E-02  0.749773991929E-02
  0.799327972864E-02  0.852157043280E-02  0.908477654595E-02  0.968520563057E-02  0.103253177504E-01
  0.110077355482E-01  0.117352549893E-01  0.125108568149E-01  0.133377187519E-01  0.142192285304E-01
  0.151589977594E-01  0.161608767213E-01  0.172289701418E-01  0.183676540033E-01  0.195815934675E-01
  0.208757619829E-01  0.222554616537E-01  0.237263449551E-01  0.252944378816E-01  0.269661646250E-01
  0.287483738820E-01  0.306483668989E-01  0.326739273687E-01  0.348333533019E-01  0.371354910018E-01
  0.395897712832E-01  0.422062480822E-01  0.449956396140E-01  0.479693722489E-01  0.511396272830E-01
  0.545193907963E-01  0.581225068011E-01  0.619637338965E-01  0.660588056622E-01  0.704244950353E-01
  0.750786829339E-01  0.800404314070E-01  0.853300616076E-01  0.909692369073E-01  0.969810514900E-01
  0.103390124785E+00  0.110222702123E+00  0.117506762024E+00  0.125272130557E+00  0.133550603219E+00
  0.142376074859E+00  0.151784678131E+00  0.161814931083E+00  0.172507894433E+00  0.183907339207E+00
  0.196059925394E+00  0.209015392334E+00  0.222826761632E+00  0.237550553386E+00  0.253247016616E+00
  0.269980374813E+00  0.287819087591E+00  0.306836129497E+00  0.327109287085E+00  0.348721475442E+00
  0.371761075434E+00  0.396322292999E+00  0.422505541928E+00  0.450417851637E+00  0.480173301553E+00
  0.511893483811E+00  0.545707996094E+00  0.581754966540E+00  0.620181612771E+00  0.661144837215E+00
  0.704811861037E+00  0.751360899127E+00  0.800981878750E+00  0.853877204595E+00  0.910262573175E+00
  0.970367839633E+00  0.103443794026E+01  0.110273387417E+01  0.117553374780E+01  0.125313388611E+01
  0.133585001461E+01  0.142401851642E+01  0.151799776906E+01  0.161816956567E+01  0.172494062580E+01
  0.183874420093E+01  0.196004178053E+01  0.208932490432E+01  0.222711708701E+01  0.237397586185E+01
  0.253049494985E+01  0.269730656153E+01  0.287508383861E+01  0.306454344321E+01  0.326644830238E+01
  0.348161051623E+01  0.371089443783E+01  0.395521993374E+01  0.421556583382E+01  0.449297357932E+01
  0.478855107852E+01  0.510347677880E+01  0.543900396459E+01  0.579646529012E+01  0.617727755597E+01
  0.658294673794E+01  0.701507327661E+01  0.747535763499E+01  0.796560613130E+01  0.848773705265E+01
  0.904378705421E+01  0.963591784715E+01  0.102664231764E+02  0.109377360871E+02  0.116524364772E+02
  0.124132589268E+02  0.132231007967E+02  0.140850305789E+02  0.150022964790E+02  0.159783352050E+02
  0.170167809288E+02  0.181214743775E+02  0.192964720060E+02  0.205460551869E+02  0.218747393449E+02
  0.232872829468E+02  0.247886962426E+02  0.263842496363E+02  0.280794815397E+02  0.298802055458E+02
  0.317925167246E+02  0.338227968199E+02  0.359777180880E+02  0.382642454842E+02  0.406896368592E+02
  0.432614407813E+02  0.459874915494E+02  0.488759009017E+02  0.519350458641E+02  0.551735521128E+02
  0.586002721476E+02  0.622242574936E+02  0.660547240568E+02  0.701010096668E+02  0.743725227365E+02
  0.788786808644E+02  0.836288380914E+02  0.886321994117E+02  0.938977210223E+02  0.994339946818E+02
  0.105249114439E+03  0.111350523896E+03  0.117744842081E+03  0.124437665952E+03  0.131433347507E+03
  0.138734743510E+03  0.146342935870E+03  0.154256920883E+03  0.162473265742E+03  0.170985731056E+03
  0.179784858594E+03  0.188857524092E+03  0.198186455784E+03  0.207749720400E+03  0.217520179681E+03
  0.227464922157E+03  0.237544676927E+03  0.247713218661E+03  0.257916775933E+03  0.268093458452E+03
  0.278172722700E+03  0.288074900096E+03  0.297710816892E+03  0.306981540731E+03  0.315778294962E+03
  0.323982588335E+03  0.331466614394E+03  0.338093981393E+03  0.343720839552E+03  0.348197477202E+03
  0.351370460239E+03  0.353085389200E+03  0.353190343986E+03  0.351540076228E+03  0.348000991728E+03
  0.342456938138E+03  0.334815773642E+03  0.325016638376E+03  0.313037778915E+03  0.298904685022E+03
  0.282698184948E+03  0.264562010159E+03  0.244709183039E+03  0.223426405406E+03  0.201075438595E+03
  0.178090279437E+03  0.154968769485E+03  0.132257154145E+03  0.110526070648E+03  0.903365368995E+02
  0.721947963640E+02  0.564954170484E+02  0.434529225129E+02  0.330235646541E+02  0.248663912740E+02
  0.185516046396E+02  0.137101455876E+02  0.100344949667E+02  0.727163085008E+01  0.521590847881E+01
  0.370218427021E+01  0.259940239286E+01  0.180477809506E+01  0.123864562638E+01  0.839988600502E+00
  0.562634420978E+00  0.372069817927E+00  0.242819312948E+00  0.156320549152E+00  0.992281820237E-01
  0.620798328992E-01  0.382622248988E-01  0.232218590393E-01  0.138715997660E-01  0.815163448445E-02
  0.471003839733E-02  0.267438187350E-02  0.149135878962E-02  0.816253263877E-03  0.438193453470E-03
  0.230579747872E-03  0.118856836446E-03  0.599837406789E-04  0.296226406800E-04  0.143073954444E-04
  0.675425513133E-05  0.311434595731E-05  0.140147287011E-05  0.614976328147E-06  0.262900676761E-06
  0.109387091846E-06  0.442528673048E-07  0.173883822811E-07  0.662900262226E-08  0.244924109726E-08
  0.876055490150E-09  0.303020337422E-09  0.101245277258E-09  0.326406816798E-10  0.101422748483E-10
  0.303389862236E-11  0.872645983283E-12  0.241051166196E-12  0.638639471803E-13  0.162067310240E-13
 local pseudopotential core
 -0.162300612466E+03 -0.162298837361E+03 -0.162297118160E+03 -0.162295453104E+03 -0.162293840486E+03
 -0.162292278655E+03 -0.162290766012E+03 -0.162289301007E+03 -0.162287882141E+03 -0.162286507961E+03
 -0.162285177058E+03 -0.162283888071E+03 -0.162282639680E+03 -0.162281430605E+03 -0.162280259609E+03
 -0.162279125492E+03 -0.162278027093E+03 -0.162276963288E+03 -0.162275932986E+03 -0.162274935133E+03
 -0.162273968707E+03 -0.162273032719E+03 -0.162272126209E+03 -0.162271248249E+03 -0.162270397941E+03
 -0.162269574414E+03 -0.162268776824E+03 -0.162268004354E+03 -0.162267256213E+03 -0.162266531637E+03
 -0.162265829882E+03 -0.162265150229E+03 -0.162264491984E+03 -0.162263854471E+03 -0.162263237039E+03
 -0.162262639055E+03 -0.162262059906E+03 -0.162261499000E+03 -0.162260955762E+03 -0.162260429636E+03
 -0.162259920084E+03 -0.162259426583E+03 -0.162258948630E+03 -0.162258485733E+03 -0.162258037419E+03
 -0.162257603230E+03 -0.162257182721E+03 -0.162256775461E+03 -0.162256381034E+03 -0.162255999035E+03
 -0.162255629075E+03 -0.162255270774E+03 -0.162254923765E+03 -0.162254587694E+03 -0.162254262217E+03
 -0.162253947001E+03 -0.162253641722E+03 -0.162253346070E+03 -0.162253059741E+03 -0.162252782443E+03
 -0.162252513893E+03 -0.162252253815E+03 -0.162252001943E+03 -0.162251758022E+03 -0.162251521801E+03
 -0.162251293038E+03 -0.162251071501E+03 -0.162250856963E+03 -0.162250649206E+03 -0.162250448017E+03
 -0.162250253190E+03 -0.162250064528E+03 -0.162249881839E+03 -0.162249704935E+03 -0.162249533638E+03
 -0.162249367772E+03 -0.162249207170E+03 -0.162249051668E+03 -0.162248901108E+03 -0.162248755337E+03
 -0.162248614209E+03 -0.162248477579E+03 -0.162248345311E+03 -0.162248217269E+03 -0.162248093327E+03
 -0.162247973358E+03 -0.162247857242E+03 -0.162247744863E+03 -0.162247636108E+03 -0.162247530870E+03
 -0.162247429042E+03 -0.162247330525E+03 -0.162247235220E+03 -0.162247143035E+03 -0.162247053877E+03
 -0.162246967661E+03 -0.162246884302E+03 -0.162246803720E+03 -0.162246725838E+03 -0.162246650580E+03
 -0.162246577877E+03 -0.162246507658E+03 -0.162246439860E+03 -0.162246374420E+03 -0.162246311278E+03
 -0.162246250377E+03 -0.162246191664E+03 -0.162246135088E+03 -0.162246080600E+03 -0.162246028154E+03
 -0.162245977709E+03 -0.162245929223E+03 -0.162245882661E+03 -0.162245837987E+03 -0.162245795169E+03
 -0.162245754180E+03 -0.162245714993E+03 -0.162245677585E+03 -0.162245641937E+03 -0.162245608031E+03
 -0.162245575853E+03 -0.162245545392E+03 -0.162245516642E+03 -0.162245489597E+03 -0.162245464257E+03
 -0.162245440625E+03 -0.162245418707E+03 -0.162245398512E+03 -0.162245380056E+03 -0.162245363355E+03
 -0.162245348433E+03 -0.162245335316E+03 -0.162245324035E+03 -0.162245314627E+03 -0.162245307133E+03
 -0.162245301600E+03 -0.162245298079E+03 -0.162245296628E+03 -0.162245297313E+03 -0.162245300203E+03
 -0.162245305377E+03 -0.162245312919E+03 -0.162245322921E+03 -0.162245335485E+03 -0.162245350720E+03
 -0.162245368744E+03 -0.162245389685E+03 -0.162245413681E+03 -0.162245440881E+03 -0.162245471446E+03
 -0.162245505548E+03 -0.162245543374E+03 -0.162245585121E+03 -0.162245631005E+03 -0.162245681254E+03
 -0.162245736115E+03 -0.162245795850E+03 -0.162245860742E+03 -0.162245931092E+03 -0.162246007223E+03
 -0.162246089480E+03 -0.162246178232E+03 -0.162246273873E+03 -0.162246376824E+03 -0.162246487535E+03
 -0.162246606487E+03 -0.162246734191E+03 -0.162246871194E+03 -0.162247018081E+03 -0.162247175475E+03
 -0.162247344039E+03 -0.162247524483E+03 -0.162247717561E+03 -0.162247924079E+03 -0.162248144897E+03
 -0.162248380928E+03 -0.162248633149E+03 -0.162248902600E+03 -0.162249190387E+03 -0.162249497690E+03
 -0.162249825766E+03 -0.162250175953E+03 -0.162250549677E+03 -0.162250948454E+03 -0.162251373900E+03
 -0.162251827734E+03 -0.162252311786E+03 -0.162252828003E+03 -0.162253378456E+03 -0.162253965349E+03
 -0.162254591023E+03 -0.162255257972E+03 -0.162255968843E+03 -0.162256726452E+03 -0.162257533788E+03
 -0.162258394030E+03 -0.162259310552E+03 -0.162260286936E+03 -0.162261326986E+03 -0.162262434736E+03
 -0.162263614465E+03 -0.162264870712E+03 -0.162266208286E+03 -0.162267632282E+03 -0.162269148094E+03
 -0.162270761434E+03 -0.162272478341E+03 -0.162274305201E+03 -0.162276248761E+03 -0.162278316144E+03
 -0.162280514866E+03 -0.162282852848E+03 -0.162285338435E+03 -0.162287980408E+03 -0.162290787994E+03
 -0.162293770887E+03 -0.162296939246E+03 -0.162300303715E+03 -0.162303875421E+03 -0.162307665980E+03
 -0.162311687496E+03 -0.162315952554E+03 -0.162320474212E+03 -0.162325265980E+03 -0.162330341799E+03
 -0.162335716005E+03 -0.162341403286E+03 -0.162347418625E+03 -0.162353777232E+03 -0.162360494453E+03
 -0.162367585669E+03 -0.162375066166E+03 -0.162382950982E+03 -0.162391254724E+03 -0.162399991358E+03
 -0.162409173947E+03 -0.162418814362E+03 -0.162428922929E+03 -0.162439508030E+03 -0.162450575631E+03
 -0.162462128742E+03 -0.162474166790E+03 -0.162486684905E+03 -0.162499673087E+03 -0.162513115269E+03
 -0.162526988227E+03 -0.162541260356E+03 -0.162555890260E+03 -0.162570825160E+03 -0.162585999087E+03
 -0.162601330831E+03 -0.162616721633E+03 -0.162632052578E+03 -0.162647181659E+03 -0.162661940487E+03
 -0.162676130600E+03 -0.162689519340E+03 -0.162701835249E+03 -0.162712762956E+03 -0.162721937493E+03
 -0.162728938014E+03 -0.162733280863E+03 -0.162734411946E+03 -0.162731698388E+03 -0.162724419409E+03
 -0.162711756417E+03 -0.162692782293E+03 -0.162666449853E+03 -0.162631579507E+03 -0.162586846137E+03
 -0.162530765258E+03 -0.162461678532E+03 -0.162377738760E+03 -0.162276894514E+03 -0.162156874599E+03
 -0.162015172610E+03 -0.161849031878E+03 -0.161655431167E+03 -0.161431071524E+03 -0.161172364741E+03
 -0.160875423896E+03 -0.160536056466E+03 -0.160149760471E+03 -0.159711724032E+03 -0.159216828623E+03
 -0.158659656067E+03 -0.158034499087E+03 -0.157335374848E+03 -0.156556040518E+03 -0.155690009422E+03
 -0.154730565929E+03 -0.153670776955E+03 -0.152503498001E+03 -0.151221372213E+03 -0.149816822416E+03
 -0.148282038595E+03 -0.146608967203E+03 -0.144789313806E+03 -0.142814576032E+03 -0.140676127194E+03
 -0.138365367461E+03 -0.135873944104E+03 -0.133194027867E+03 -0.130321378838E+03 -0.127312634920E+03
 -0.124226263316E+03 -0.121075725005E+03 -0.117860599331E+03 -0.114583722019E+03 -0.111053518585E+03
 -0.107504638962E+03 -0.104087497529E+03 -0.100807558474E+03 -0.976310837592E+02 -0.945552167138E+02
 -0.915766097802E+02 -0.886920735611E+02 -0.858985583104E+02 -0.831931364653E+02 -0.805729927603E+02
 -0.780354138625E+02 -0.755777812573E+02 -0.731975652705E+02 -0.708923201645E+02 -0.686596800891E+02
 -0.664973556018E+02 -0.644031306639E+02 -0.623748600006E+02 -0.604104666784E+02 -0.585079396953E+02
 -0.566653313790E+02 -0.548807545809E+02 -0.531523805103E+02 -0.514784381789E+02 -0.498572117144E+02
 -0.482870409835E+02 -0.467663185436E+02 -0.452934901995E+02 -0.438670423964E+02 -0.424855190829E+02
 -0.411475056296E+02 -0.398516305983E+02 -0.385965648708E+02 -0.373810290207E+02 -0.362037698817E+02
 -0.350635913250E+02 -0.339593189855E+02 -0.328898245882E+02 -0.318540121705E+02 -0.308508210472E+02
 -0.298792238123E+02 -0.289382254368E+02 -0.280268622377E+02 -0.271442008879E+02 -0.262893374777E+02
 pspotential valence only
 -0.947070618425E+02 -0.947052867464E+02 -0.947035675552E+02 -0.947019025090E+02 -0.947002899019E+02
 -0.946987280823E+02 -0.946972154520E+02 -0.946957504605E+02 -0.946943316088E+02 -0.946929574434E+02
 -0.946916265574E+02 -0.946903375874E+02 -0.946890892143E+02 -0.946878801591E+02 -0.946867091835E+02
 -0.946855750890E+02 -0.946844767140E+02 -0.946834129338E+02 -0.946823826589E+02 -0.946813848347E+02
 -0.946804184394E+02 -0.946794824836E+02 -0.946785760080E+02 -0.946776980855E+02 -0.946768478171E+02
 -0.946760243316E+02 -0.946752267862E+02 -0.946744543643E+02 -0.946737062750E+02 -0.946729817528E+02
 -0.946722800557E+02 -0.946716004650E+02 -0.946709422855E+02 -0.946703048432E+02 -0.946696874859E+02
 -0.946690895813E+02 -0.946685105174E+02 -0.946679497019E+02 -0.946674065608E+02 -0.946668805381E+02
 -0.946663710957E+02 -0.946658777124E+02 -0.946653998834E+02 -0.946649371197E+02 -0.946644889481E+02
 -0.946640549102E+02 -0.946636345623E+02 -0.946632274746E+02 -0.946628332307E+02 -0.946624514278E+02
 -0.946620816759E+02 -0.946617235970E+02 -0.946613768254E+02 -0.946610410070E+02 -0.946607157990E+02
 -0.946604008695E+02 -0.946600958972E+02 -0.946598005711E+02 -0.946595145901E+02 -0.946592376630E+02
 -0.946589695076E+02 -0.946587098510E+02 -0.946584584292E+02 -0.946582149865E+02 -0.946579792758E+02
 -0.946577510578E+02 -0.946575301011E+02 -0.946573161821E+02 -0.946571090840E+02 -0.946569085979E+02
 -0.946567145212E+02 -0.946565266586E+02 -0.946563448210E+02 -0.946561688259E+02 -0.946559984968E+02
 -0.946558336636E+02 -0.946556741619E+02 -0.946555198329E+02 -0.946553705237E+02 -0.946552260868E+02
 -0.946550863798E+02 -0.946549512659E+02 -0.946548206131E+02 -0.946546942946E+02 -0.946545721884E+02
 -0.946544541772E+02 -0.946543401487E+02 -0.946542299949E+02 -0.946541236126E+02 -0.946540209030E+02
 -0.946539217717E+02 -0.946538261287E+02 -0.946537338885E+02 -0.946536449696E+02 -0.946535592949E+02
 -0.946534767917E+02 -0.946533973913E+02 -0.946533210294E+02 -0.946532476458E+02 -0.946531771846E+02
 -0.946531095942E+02 -0.946530448272E+02 -0.946529828406E+02 -0.946529235959E+02 -0.946528670589E+02
 -0.946528131998E+02 -0.946527619938E+02 -0.946527134205E+02 -0.946526674644E+02 -0.946526241149E+02
 -0.946525833666E+02 -0.946525452193E+02 -0.946525096780E+02 -0.946524767536E+02 -0.946524464626E+02
 -0.946524188276E+02 -0.946523938775E+02 -0.946523716475E+02 -0.946523521800E+02 -0.946523355241E+02
 -0.946523217366E+02 -0.946523108822E+02 -0.946523030335E+02 -0.946522982720E+02 -0.946522966881E+02
 -0.946522983818E+02 -0.946523034633E+02 -0.946523120532E+02 -0.946523242835E+02 -0.946523402979E+02
 -0.946523602529E+02 -0.946523843181E+02 -0.946524126772E+02 -0.946524455287E+02 -0.946524830872E+02
 -0.946525255837E+02 -0.946525732673E+02 -0.946526264057E+02 -0.946526852870E+02 -0.946527502202E+02
 -0.946528215373E+02 -0.946528995941E+02 -0.946529847721E+02 -0.946530774801E+02 -0.946531781556E+02
 -0.946532872671E+02 -0.946534053158E+02 -0.946535328377E+02 -0.946536704060E+02 -0.946538186335E+02
 -0.946539781747E+02 -0.946541497293E+02 -0.946543340444E+02 -0.946545319181E+02 -0.946547442025E+02
 -0.946549718072E+02 -0.946552157034E+02 -0.946554769274E+02 -0.946557565854E+02 -0.946560558576E+02
 -0.946563760033E+02 -0.946567183660E+02 -0.946570843789E+02 -0.946574755708E+02 -0.946578935723E+02
 -0.946583401225E+02 -0.946588170761E+02 -0.946593264111E+02 -0.946598702365E+02 -0.946604508013E+02
 -0.946610705034E+02 -0.946617318995E+02 -0.946624377154E+02 -0.946631908571E+02 -0.946639944224E+02
 -0.946648517139E+02 -0.946657662518E+02 -0.946667417886E+02 -0.946677823241E+02 -0.946688921212E+02
 -0.946700757236E+02 -0.946713379739E+02 -0.946726840328E+02 -0.946741193999E+02 -0.946756499362E+02
 -0.946772818868E+02 -0.946790219063E+02 -0.946808770850E+02 -0.946828549776E+02 -0.946849636326E+02
 -0.946872116243E+02 -0.946896080869E+02 -0.946921627504E+02 -0.946948859784E+02 -0.946977888093E+02
 -0.947008829990E+02 -0.947041810668E+02 -0.947076963438E+02 -0.947114430246E+02 -0.947154362215E+02
 -0.947196920229E+02 -0.947242275541E+02 -0.947290610427E+02 -0.947342118869E+02 -0.947397007285E+02
 -0.947455495299E+02 -0.947517816550E+02 -0.947584219554E+02 -0.947654968607E+02 -0.947730344744E+02
 -0.947810646743E+02 -0.947896192185E+02 -0.947987318569E+02 -0.948084384484E+02 -0.948187770837E+02
 -0.948297882141E+02 -0.948415147864E+02 -0.948540023838E+02 -0.948672993726E+02 -0.948814570556E+02
 -0.948965298308E+02 -0.949125753564E+02 -0.949296547212E+02 -0.949478326204E+02 -0.949671775362E+02
 -0.949877619224E+02 -0.950096623932E+02 -0.950329599139E+02 -0.950577399940E+02 -0.950840928799E+02
 -0.951121137467E+02 -0.951419028868E+02 -0.951735658928E+02 -0.952072138331E+02 -0.952429634154E+02
 -0.952809371367E+02 -0.953212634139E+02 -0.953640766909E+02 -0.954095175175E+02 -0.954577325923E+02
 -0.955088747635E+02 -0.955631029796E+02 -0.956205821798E+02 -0.956814831146E+02 -0.957459820843E+02
 -0.958142605819E+02 -0.958865048266E+02 -0.959629051692E+02 -0.960436553539E+02 -0.961289516123E+02
 -0.962189915707E+02 -0.963139729424E+02 -0.964140919799E+02 -0.965195416563E+02 -0.966305095435E+02
 -0.967471753533E+02 -0.968697081031E+02 -0.969982628683E+02 -0.971329770785E+02 -0.972739663162E+02
 -0.974213195741E+02 -0.975750939258E+02 -0.977353085692E+02 -0.979019381990E+02 -0.980749056741E+02
 -0.982540739462E+02 -0.984392372272E+02 -0.986301113838E+02 -0.988263235599E+02 -0.990274010477E+02
 -0.992327594498E+02 -0.994416902012E+02 -0.996533475517E+02 -0.998667351483E+02 -0.100080692394E+03
 -0.100293880809E+03 -0.100504770668E+03 -0.100711628225E+03 -0.100912503907E+03 -0.101105221853E+03
 -0.101287371244E+03 -0.101456299829E+03 -0.101609110039E+03 -0.101742658003E+03 -0.101853555621E+03
 -0.101938175671E+03 -0.101992659623E+03 -0.102012927471E+03 -0.101994688463E+03 -0.101933451129E+03
 -0.101824530586E+03 -0.101663050789E+03 -0.101443939429E+03 -0.101161913737E+03 -0.100811456890E+03
 -0.100386787202E+03 -0.998818262067E+02 -0.992901768234E+02 -0.986051282496E+02 -0.978197076242E+02
 -0.969267949885E+02 -0.959193027530E+02 -0.947904063871E+02 -0.935365594101E+02 -0.922147255366E+02
 -0.908832681711E+02 -0.895550471203E+02 -0.882284696271E+02 -0.869045491575E+02 -0.853891542237E+02
 -0.838127327691E+02 -0.822298170342E+02 -0.806543336626E+02 -0.790601343352E+02 -0.774509849710E+02
 -0.758291898874E+02 -0.741963761521E+02 -0.725537651001E+02 -0.709025670051E+02 -0.692444211960E+02
 -0.675817745118E+02 -0.659181028009E+02 -0.642579295397E+02 -0.626066551705E+02 -0.609702476342E+02
 -0.593548197027E+02 -0.577660213393E+02 -0.562080642857E+02 -0.546822528741E+02 -0.531853847916E+02
 -0.517093202396E+02 -0.502435255983E+02 -0.487807839787E+02 -0.473225202945E+02 -0.458787874838E+02
 -0.444628174403E+02 -0.430854092474E+02 -0.417530890821E+02 -0.404691851589E+02 -0.392353810944E+02
 -0.380523846022E+02 -0.369195487547E+02 -0.358344487979E+02 -0.347926947226E+02 -0.337886822819E+02
 -0.328166268301E+02 -0.318715126229E+02 -0.309496003493E+02 -0.300484990617E+02 -0.291669839945E+02
 -0.283047217549E+02 -0.274620001645E+02 -0.266394986310E+02 -0.258381005815E+02 -0.250587372427E+02
 core charge-density (pseudized)
  0.880333849013E-07  0.938517224023E-07  0.100054607775E-06  0.106667456709E-06  0.113717364678E-06
  0.121233217959E-06  0.129245811996E-06  0.137787977572E-06  0.146894715338E-06  0.156603339222E-06
  0.166953629318E-06  0.177987994880E-06  0.189751648093E-06  0.202292789321E-06  0.215662804606E-06
  0.229916476216E-06  0.245112207110E-06  0.261312260238E-06  0.278583013653E-06  0.296995232496E-06
  0.316624358942E-06  0.337550821319E-06  0.359860363653E-06  0.383644396999E-06  0.409000373982E-06
  0.436032188104E-06  0.464850599434E-06  0.495573688434E-06  0.528327339787E-06  0.563245758186E-06
  0.600472018234E-06  0.640158650668E-06  0.682468267342E-06  0.727574227507E-06  0.775661348135E-06
  0.826926661186E-06  0.881580220920E-06  0.939845964575E-06  0.100196262992E-05  0.106818473347E-05
  0.113878361330E-05  0.121404854088E-05  0.129428790628E-05  0.137983048179E-05  0.147102676899E-05
  0.156825043495E-05  0.167189984322E-05  0.178239968613E-05  0.190020272486E-05  0.202579164463E-05
  0.215968103238E-05  0.230241948528E-05  0.245459185850E-05  0.261682166158E-05  0.278977361320E-05
  0.297415636472E-05  0.317072540385E-05  0.338028615011E-05  0.360369725491E-05  0.384187411979E-05
  0.409579264709E-05  0.436649323861E-05  0.465508505843E-05  0.496275057761E-05  0.529075041909E-05
  0.564042852293E-05  0.601321765286E-05  0.641064526676E-05  0.683433977515E-05  0.728603721329E-05
  0.776758835423E-05  0.828096629202E-05  0.882827452600E-05  0.941175557950E-05  0.100338001880E-04
  0.106969570947E-04  0.114039434933E-04  0.121576561612E-04  0.129611833280E-04  0.138178173289E-04
  0.147310680942E-04  0.157046775300E-04  0.167426348497E-04  0.178491929185E-04  0.190288856780E-04
  0.202865467225E-04  0.216273291031E-04  0.230567264401E-04  0.245805954310E-04  0.262051798461E-04
  0.279371361092E-04  0.297835605695E-04  0.317520185756E-04  0.338505754702E-04  0.360878296341E-04
  0.384729477125E-04  0.410157021707E-04  0.437265113299E-04  0.466164820498E-04  0.496974552310E-04
  0.529820543244E-04  0.564837370458E-04  0.602168505081E-04  0.641966899957E-04  0.684395616226E-04
  0.729628491315E-04  0.777850851047E-04  0.829260268815E-04  0.884067374909E-04  0.942496719310E-04
  0.100478769149E-03  0.107119550098E-03  0.114199222271E-03  0.121746791141E-03  0.129793178964E-03
  0.138371351424E-03  0.147516452655E-03  0.157265949166E-03  0.167659783289E-03  0.178740536743E-03
  0.190553605021E-03  0.203147383273E-03  0.216573464480E-03  0.230886850705E-03  0.246146178296E-03
  0.262413957957E-03  0.279756830670E-03  0.298245840506E-03  0.317956725455E-03  0.338970227440E-03
  0.361372422801E-03  0.385255074582E-03  0.410716008069E-03  0.437859511102E-03  0.466796760797E-03
  0.497646278419E-03  0.530534414249E-03  0.565595864435E-03  0.602974221915E-03  0.642822563663E-03
  0.685304076643E-03  0.730592725013E-03  0.778873961294E-03  0.830345484390E-03  0.885218047526E-03
  0.943716319395E-03  0.100607980199E-02  0.107256380884E-02  0.114344050763E-02  0.121900003134E-02
  0.129955166256E-02  0.138542509551E-02  0.147697178110E-02  0.157456636029E-02  0.167860819152E-02
  0.178952297851E-02  0.190776450467E-02  0.203381648131E-02  0.216819451701E-02  0.231144821582E-02
  0.246416341293E-02  0.262696455651E-02  0.280051724515E-02  0.298553093120E-02  0.318276180039E-02
  0.339301583924E-02  0.361715210236E-02  0.385608619229E-02  0.411079396571E-02  0.438231548024E-02
  0.467175919723E-02  0.498030645697E-02  0.530921624322E-02  0.565983025573E-02  0.603357830977E-02
  0.643198408350E-02  0.685667123466E-02  0.730936990978E-02  0.779192367008E-02  0.830629685984E-02
  0.885458244448E-02  0.943901034683E-02  0.100619563120E-01  0.107259513329E-01  0.114336916693E-01
  0.121880494966E-01  0.129920842215E-01  0.138490545018E-01  0.147624310145E-01  0.157359100109E-01
  0.167734277074E-01  0.178791755558E-01  0.190576164434E-01  0.203135018722E-01  0.216518901714E-01
  0.230781657953E-01  0.245980597645E-01  0.262176713066E-01  0.279434907561E-01  0.297824237734E-01
  0.317418169433E-01  0.338294848156E-01  0.360537384479E-01  0.384234155134E-01  0.409479120321E-01
  0.436372157850E-01  0.465019414659E-01  0.495533676239E-01  0.528034754423E-01  0.562649893950E-01
  0.599514198148E-01  0.638771073931E-01  0.680572696262E-01  0.725080492005E-01  0.772465642985E-01
  0.822909607827E-01  0.876604661903E-01  0.933754454449E-01  0.994574581547E-01  0.105929317329E+00
  0.112815149298E+00  0.120140454570E+00  0.127932169291E+00  0.136218726919E+00  0.145030119615E+00
  0.154397958798E+00  0.164355534162E+00  0.174937870381E+00  0.186181780547E+00  0.198125915257E+00
  0.210810806091E+00  0.224278902009E+00  0.238574596997E+00  0.253744247024E+00  0.269836174106E+00
  0.286900654969E+00  0.304989891453E+00  0.324157959429E+00  0.344460732564E+00  0.365955776858E+00
  0.388702211320E+00  0.412760529652E+00  0.438192377203E+00  0.465060276835E+00  0.493427296667E+00
  0.523356651961E+00  0.554911232674E+00  0.588153047448E+00  0.623142574029E+00  0.659938005355E+00
  0.698594379815E+00  0.739162583511E+00  0.781688211770E+00  0.826210276705E+00  0.872759747398E+00
  0.921357909268E+00  0.972014529563E+00  0.102472581673E+01  0.107947216279E+01  0.113621565992E+01
  0.119489738542E+01  0.125543445323E+01  0.131771683555E+01  0.138160396477E+01  0.144692113472E+01
  0.151345573089E+01  0.158095333234E+01  0.164911374402E+01  0.171758703704E+01  0.178596969675E+01
  0.185380100459E+01  0.192055980921E+01  0.198566187613E+01  0.204845804249E+01  0.210823344418E+01
  0.216420812555E+01  0.221553938653E+01  0.226132626550E+01  0.230061659649E+01  0.233241711231E+01
  0.235570708625E+01  0.236945600697E+01  0.237264575734E+01  0.236429770658E+01  0.234350501605E+01
  0.230947028664E+01  0.226154842625E+01  0.219929426973E+01  0.212251402629E+01  0.203131904120E+01
  0.192617962898E+01  0.180797585486E+01  0.167804111535E+01  0.153819321624E+01  0.139074641062E+01
  0.123849661678E+01  0.108467090352E+01  0.932831479493E+00  0.786724089809E+00  0.650061213575E+00
  0.526232155558E+00  0.417935488551E+00  0.326734838172E+00  0.252547658411E+00  0.193396624173E+00
  0.146709138142E+00  0.110217970160E+00  0.819806551574E-01  0.603536654221E-01  0.439634609754E-01
  0.316761388481E-01  0.225670577130E-01  0.158914959419E-01  0.110571148179E-01  0.759874755469E-02
  0.515582075760E-02  0.345253815272E-02  0.228081596905E-02  0.148585313341E-02  0.954144324858E-03
  0.603695933612E-03  0.376179664375E-03  0.230751329960E-03  0.139269077592E-03  0.826621041406E-04
  0.482246264732E-04  0.276376967324E-04  0.155509889803E-04  0.858591461887E-05  0.464876977867E-05
  0.246699363527E-05  0.128243891007E-05  0.652682288115E-06  0.325017952869E-06  0.158260539757E-06
  0.752988020555E-07  0.349797421625E-07  0.158525049456E-07  0.700247413571E-08  0.301216542158E-08
  0.126056308630E-08  0.512719112600E-09  0.202480793236E-09  0.775588333121E-10  0.287853642532E-10
  0.103407526150E-10  0.359182549972E-11  0.120502726980E-11  0.390052469434E-12  0.121676452139E-12
  0.365379580668E-13  0.105490828061E-13  0.292466292558E-14  0.777612965507E-15  0.198011393436E-15
 pseudo wavefunction
  0.189921221758E-03  0.196096986041E-03  0.202473570767E-03  0.209057506114E-03  0.215855534607E-03
  0.222874618021E-03  0.230121944509E-03  0.237604935965E-03  0.245331255627E-03  0.253308815919E-03
  0.261545786558E-03  0.270050602921E-03  0.278831974681E-03  0.287898894729E-03  0.297260648380E-03
  0.306926822887E-03  0.316907317254E-03  0.327212352377E-03  0.337852481509E-03  0.348838601070E-03
  0.360181961801E-03  0.371894180292E-03  0.383987250873E-03  0.396473557901E-03  0.409365888440E-03
  0.422677445356E-03  0.436421860842E-03  0.450613210372E-03  0.465266027120E-03  0.480395316843E-03
  0.496016573247E-03  0.512145793851E-03  0.528799496377E-03  0.545994735658E-03  0.563749121107E-03
  0.582080834753E-03  0.601008649854E-03  0.620551950128E-03  0.640730749604E-03  0.661565713111E-03
  0.683078177449E-03  0.705290173233E-03  0.728224447459E-03  0.751904486795E-03  0.776354541633E-03
  0.801599650926E-03  0.827665667829E-03  0.854579286172E-03  0.882368067798E-03  0.911060470791E-03
  0.940685878612E-03  0.971274630198E-03  0.100285805102E-02  0.103546848519E-02  0.106913932853E-02
  0.110390506283E-02  0.113980129112E-02  0.117686477416E-02  0.121513346804E-02  0.125464656310E-02
  0.129544452404E-02  0.133756913135E-02  0.138106352410E-02  0.142597224412E-02  0.147234128162E-02
  0.152021812228E-02  0.156965179586E-02  0.162069292643E-02  0.167339378421E-02  0.172780833909E-02
  0.178399231588E-02  0.184200325140E-02  0.190190055337E-02  0.196374556130E-02  0.202760160921E-02
  0.209353409058E-02  0.216161052524E-02  0.223190062855E-02  0.230447638277E-02  0.237941211076E-02
  0.245678455211E-02  0.253667294169E-02  0.261915909081E-02  0.270432747095E-02  0.279226530029E-02
  0.288306263299E-02  0.297681245141E-02  0.307361076130E-02  0.317355669010E-02  0.327675258847E-02
  0.338330413501E-02  0.349332044450E-02  0.360691417963E-02  0.372420166630E-02  0.384530301272E-02
  0.397034223242E-02  0.409944737113E-02  0.423275063792E-02  0.437038854049E-02  0.451250202498E-02
  0.465923662015E-02  0.481074258642E-02  0.496717506963E-02  0.512869425986E-02  0.529546555534E-02
  0.546765973178E-02  0.564545311710E-02  0.582902777191E-02  0.601857167579E-02  0.621427891964E-02
  0.641634990429E-02  0.662499154553E-02  0.684041748581E-02  0.706284831279E-02  0.729251178499E-02
  0.752964306476E-02  0.777448495881E-02  0.802728816651E-02  0.828831153627E-02  0.855782233022E-02
  0.883609649744E-02  0.912341895611E-02  0.942008388468E-02  0.972639502259E-02  0.100426659807E-01
  0.103692205615E-01  0.107063930904E-01  0.110545287566E-01  0.114139839661E-01  0.117851267057E-01
  0.121683369180E-01  0.125640068900E-01  0.129725416529E-01  0.133943593958E-01  0.138298918916E-01
  0.142795849379E-01  0.147438988109E-01  0.152233087351E-01  0.157183053668E-01  0.162293952943E-01
  0.167571015533E-01  0.173019641595E-01  0.178645406575E-01  0.184454066880E-01  0.190451565728E-01
  0.196644039183E-01  0.203037822386E-01  0.209639455985E-01  0.216455692762E-01  0.223493504481E-01
  0.230760088943E-01  0.238262877275E-01  0.246009541439E-01  0.254008001983E-01  0.262266436038E-01
  0.270793285558E-01  0.279597265829E-01  0.288687374234E-01  0.298072899294E-01  0.307763429997E-01
  0.317768865403E-01  0.328099424555E-01  0.338765656692E-01  0.349778451772E-01  0.361149051322E-01
  0.372889059610E-01  0.385010455162E-01  0.397525602615E-01  0.410447264937E-01  0.423788616000E-01
  0.437563253526E-01  0.451785212417E-01  0.466468978465E-01  0.481629502465E-01  0.497282214724E-01
  0.513443039989E-01  0.530128412783E-01  0.547355293175E-01  0.565141182976E-01  0.583504142372E-01
  0.602462807002E-01  0.622036405482E-01  0.642244777374E-01  0.663108391618E-01  0.684648365407E-01
  0.706886483527E-01  0.729845218143E-01  0.753547749042E-01  0.778017984314E-01  0.803280581481E-01
  0.829360969053E-01  0.856285368498E-01  0.884080816624E-01  0.912775188343E-01  0.942397219797E-01
  0.972976531828E-01  0.100454365375E+00  0.103713004742E+00  0.107076813148E+00  0.110549130586E+00
  0.114133397637E+00  0.117833157935E+00  0.121652060637E+00  0.125593862878E+00  0.129662432216E+00
  0.133861749046E+00  0.138195908972E+00  0.142669125138E+00  0.147285730482E+00  0.152050179913E+00
  0.156967052390E+00  0.162041052878E+00  0.167277014164E+00  0.172679898504E+00  0.178254799077E+00
  0.184006941217E+00  0.189941683382E+00  0.196064517831E+00  0.202381070961E+00  0.208897103262E+00
  0.215618508845E+00  0.222551314474E+00  0.229701678051E+00  0.237075886493E+00  0.244680352904E+00
  0.252521612996E+00  0.260606320629E+00  0.268941242417E+00  0.277533251255E+00  0.286389318674E+00
  0.295516505892E+00  0.304921953414E+00  0.314612869047E+00  0.324596514147E+00  0.334880187932E+00
  0.345471209664E+00  0.356376898491E+00  0.367604550718E+00  0.379161414265E+00  0.391054660051E+00
  0.403291350015E+00  0.415878401463E+00  0.428822547436E+00  0.442130292720E+00  0.455807865154E+00
  0.469861161821E+00  0.484295689723E+00  0.499116500485E+00  0.514328118644E+00  0.529934463025E+00
  0.545938760735E+00  0.562343453232E+00  0.579150093981E+00  0.596359237146E+00  0.613970316817E+00
  0.631981516247E+00  0.650389626610E+00  0.669189894824E+00  0.688375860027E+00  0.707939178353E+00
  0.727869435759E+00  0.748153948730E+00  0.768777552858E+00  0.789722379439E+00  0.810967620439E+00
  0.832489282416E+00  0.854259930294E+00  0.876248422182E+00  0.898419636868E+00  0.920734196019E+00
  0.943148183657E+00  0.965612866033E+00  0.988074415654E+00  0.101047364391E+01  0.103274574746E+01
  0.105482007443E+01  0.107661991704E+01  0.109806233845E+01  0.111905804199E+01  0.113951129202E+01
  0.115931989602E+01  0.117837525788E+01  0.119656251271E+01  0.121376075283E+01  0.122984335421E+01
  0.124467841077E+01  0.125812928192E+01  0.127005525539E+01  0.128031232274E+01  0.128875405920E+01
  0.129523259177E+01  0.129959963048E+01  0.130170752631E+01  0.130141030631E+01  0.129856462194E+01
  0.129303053010E+01  0.128467200996E+01  0.127335710172E+01  0.125895753896E+01  0.124134773534E+01
  0.122040298245E+01  0.119599672186E+01  0.116799677619E+01  0.113626046557E+01  0.110062860480E+01
  0.106092946084E+01  0.101739165500E+01  0.970627656257E+00  0.921278671789E+00  0.869980467944E+00
  0.817353899049E+00  0.763996204092E+00  0.710473189025E+00  0.657312361614E+00  0.604997065059E+00
  0.553961649277E+00  0.504587727887E+00  0.457201587558E+00  0.412072828060E+00  0.369414301366E+00
  0.329383372608E+00  0.292084450328E+00  0.257572640908E+00  0.225858300793E+00  0.196912209502E+00
  0.170671074958E+00  0.147043099492E+00  0.125913359333E+00  0.107148770107E+00  0.906024458056E-01
  0.761173656319E-01  0.635294846591E-01  0.526706790533E-01  0.433719586095E-01  0.354670229149E-01
  0.287957202970E-01  0.232068087351E-01  0.185597396342E-01  0.147255838461E-01  0.115873687534E-01
  0.904003853984E-02  0.699015345072E-02  0.535539022897E-02  0.406389439927E-02  0.305353606281E-02
  0.227111603864E-02  0.167155335726E-02  0.121707029450E-02  0.876383251943E-03  0.623907902106E-03
  0.438989991278E-03  0.305175262424E-03  0.209531543843E-03  0.142033478491E-03  0.950166170679E-04
 ae wavefunction
  0.547865118779E-02  0.564042158387E-02  0.580692557204E-02  0.597829911236E-02  0.615468190474E-02
  0.633621748159E-02  0.652305330208E-02  0.671534084796E-02  0.691323572100E-02  0.711689774190E-02
  0.732649105075E-02  0.754218420886E-02  0.776415030197E-02  0.799256704487E-02  0.822761688709E-02
  0.846948711990E-02  0.871836998420E-02  0.897446277961E-02  0.923796797402E-02  0.950909331429E-02
  0.978805193712E-02  0.100750624807E-01  0.103703491960E-01  0.106741420593E-01  0.109866768830E-01
  0.113081954275E-01  0.116389455117E-01  0.119791811228E-01  0.123291625255E-01  0.126891563690E-01
  0.130594357929E-01  0.134402805310E-01  0.138319770125E-01  0.142348184602E-01  0.146491049865E-01
  0.150751436841E-01  0.155132487140E-01  0.159637413884E-01  0.164269502475E-01  0.169032111319E-01
  0.173928672473E-01  0.178962692224E-01  0.184137751593E-01  0.189457506743E-01  0.194925689299E-01
  0.200546106557E-01  0.206322641585E-01  0.212259253191E-01  0.218359975758E-01  0.224628918939E-01
  0.231070267175E-01  0.237688279057E-01  0.244487286487E-01  0.251471693642E-01  0.258645975718E-01
  0.266014677437E-01  0.273582411301E-01  0.281353855574E-01  0.289333751963E-01  0.297526902999E-01
  0.305938169060E-01  0.314572465053E-01  0.323434756693E-01  0.332530056379E-01  0.341863418617E-01
  0.351439934983E-01  0.361264728573E-01  0.371342947918E-01  0.381679760332E-01  0.392280344646E-01
  0.403149883299E-01  0.414293553736E-01  0.425716519084E-01  0.437423918043E-01  0.449420853965E-01
  0.461712383056E-01  0.474303501661E-01  0.487199132567E-01  0.500404110282E-01  0.513923165224E-01
  0.527760906753E-01  0.541921805002E-01  0.556410171419E-01  0.571230137971E-01  0.586385634930E-01
  0.601880367165E-01  0.617717788881E-01  0.633901076709E-01  0.650433101081E-01  0.667316395802E-01
  0.684553125738E-01  0.702145052538E-01  0.720093498295E-01  0.738399307071E-01  0.757062804183E-01
  0.776083753180E-01  0.795461310392E-01  0.815193977000E-01  0.835279548504E-01  0.855715061521E-01
  0.876496737826E-01  0.897619925544E-01  0.919079037430E-01  0.940867486145E-01  0.962977616471E-01
  0.985400634401E-01  0.100812653304E+00  0.103114401531E+00  0.105444041332E+00  0.107800160456E+00
  0.110181192469E+00  0.112585407715E+00  0.115010903946E+00  0.117455596630E+00  0.119917208946E+00
  0.122393261483E+00  0.124881061634E+00  0.127377692727E+00  0.129880002891E+00  0.132384593695E+00
  0.134887808580E+00  0.137385721122E+00  0.139874123152E+00  0.142348512797E+00  0.144804082466E+00
  0.147235706865E+00  0.149637931080E+00  0.152004958814E+00  0.154330640853E+00  0.156608463856E+00
  0.158831539550E+00  0.160992594469E+00  0.163083960324E+00  0.165097565165E+00  0.167024925453E+00
  0.168857139225E+00  0.170584880501E+00  0.172198395129E+00  0.173687498270E+00  0.175041573730E+00
  0.176249575379E+00  0.177300030895E+00  0.178181048112E+00  0.178880324231E+00  0.179385158215E+00
  0.179682466668E+00  0.179758803522E+00  0.179600383905E+00  0.179193112515E+00  0.178522616899E+00
  0.177574286022E+00  0.176333314501E+00  0.174784752940E+00  0.172913564749E+00  0.170704689867E+00
  0.168143115807E+00  0.165213956409E+00  0.161902538707E+00  0.158194498264E+00  0.154075883351E+00
  0.149533268253E+00  0.144553876007E+00  0.139125710782E+00  0.133237700071E+00  0.126879846794E+00
  0.120043391321E+00  0.112720983338E+00  0.104906863348E+00  0.965970535035E-01  0.877895572922E-01
  0.784845674579E-01  0.686846813533E-01  0.583951227207E-01  0.476239686840E-01  0.363823805021E-01
  0.246848363878E-01  0.125493644454E-01 -0.222647511670E-05 -0.129441204537E-01 -0.262462753910E-01
 -0.398742140298E-01 -0.537888282619E-01 -0.679462001502E-01 -0.822974434273E-01 -0.967885696562E-01
 -0.111360383727E+00 -0.125948413905E+00 -0.140482882148E+00 -0.154888720833E+00 -0.169085642304E+00
 -0.182988267750E+00 -0.196506321869E+00 -0.209544899521E+00 -0.222004810240E+00 -0.233783005970E+00
 -0.244773096923E+00 -0.254865959855E+00 -0.263950442489E+00 -0.271914167061E+00 -0.278644435090E+00
 -0.284029234405E+00 -0.287958348198E+00 -0.290324564433E+00 -0.291024982267E+00 -0.289962410325E+00
 -0.287046849612E+00 -0.282197051588E+00 -0.275342139541E+00 -0.266423278757E+00 -0.255395378298E+00
 -0.242228804361E+00 -0.226911082344E+00 -0.209448561911E+00 -0.189868016605E+00 -0.168218147031E+00
 -0.144570954305E+00 -0.119022948540E+00 -0.916961556597E-01 -0.627388848567E-01 -0.323262189482E-01
 -0.660190799039E-03  0.320303884880E-01  0.654904795807E-01  0.994397670654E-01  0.133574031080E+00
  0.167566950790E+00  0.201072351162E+00  0.233726908817E+00  0.265153340069E+00  0.294964098098E+00
  0.322765595470E+00  0.348162938899E+00  0.370765123140E+00  0.390190604027E+00  0.406073166403E+00
  0.418068010187E+00  0.425857978772E+00  0.429159843378E+00  0.427730541543E+00  0.421373256020E+00
  0.409943215209E+00  0.393353096039E+00  0.371577911746E+00  0.344659268233E+00  0.312708873085E+00
  0.275911181678E+00  0.234525066245E+00  0.188884397751E+00  0.139397438530E+00  0.865449574735E-01
  0.308770002673E-01 -0.269917253479E-01 -0.863878579680E-01 -0.146586763771E+00 -0.206821249060E+00
 -0.266291549046E+00 -0.324176504334E+00 -0.379645714325E+00 -0.431872166871E+00 -0.480044445334E+00
 -0.523377530186E+00 -0.561122095704E+00 -0.592574135128E+00 -0.617087814881E+00 -0.634091878100E+00
 -0.643105679626E+00 -0.643751202510E+00 -0.635761094171E+00 -0.618984293656E+00 -0.593390076379E+00
 -0.559070467619E+00 -0.516240628961E+00 -0.465236857492E+00 -0.406512064482E+00 -0.340628844677E+00
 -0.268250402288E+00 -0.190129659543E+00 -0.107096874386E+00 -0.200460757854E-01  0.700793942196E-01
  0.162301952808E+00  0.255625185980E+00  0.349049313748E+00  0.441586423491E+00  0.532275184814E+00
  0.620194773557E+00  0.704477763264E+00  0.784321764242E+00  0.858999594302E+00  0.927867676867E+00
  0.990372237303E+00  0.104605277655E+01  0.109454252861E+01  0.113556632057E+01  0.116893722860E+01
  0.119455387884E+01  0.121239950568E+01  0.122254233076E+01  0.122513569307E+01  0.122041645040E+01
  0.120870102473E+01  0.119037927394E+01  0.116590669364E+01  0.113579543786E+01  0.110060451863E+01
  0.106092946084E+01  0.101739165500E+01  0.970627656257E+00  0.921278671789E+00  0.869980467944E+00
  0.817353899049E+00  0.763996204092E+00  0.710473189025E+00  0.657312361614E+00  0.604997065059E+00
  0.553961649277E+00  0.504587727887E+00  0.457201587558E+00  0.412072828060E+00  0.369414301366E+00
  0.329383372608E+00  0.292084450328E+00  0.257572640908E+00  0.225858300793E+00  0.196912209502E+00
  0.170671074958E+00  0.147043099492E+00  0.125913359333E+00  0.107148770107E+00  0.906024458056E-01
  0.761173656319E-01  0.635294846591E-01  0.526706790533E-01  0.433719586095E-01  0.354670229149E-01
  0.287957202970E-01  0.232068087351E-01  0.185597396342E-01  0.147255838461E-01  0.115873687534E-01
  0.904003853984E-02  0.699015345072E-02  0.535539022897E-02  0.406389439927E-02  0.305353606281E-02
  0.227111603864E-02  0.167155335726E-02  0.121707029450E-02  0.876383251943E-03  0.623907902106E-03
  0.438989991278E-03  0.305175262424E-03  0.209531543843E-03  0.142033478491E-03  0.950166170679E-04
 pseudo wavefunction
 -0.528185839579E-04 -0.545361125282E-04 -0.563094908415E-04 -0.581405349919E-04 -0.600311201286E-04
 -0.619831823756E-04 -0.639987208151E-04 -0.660797995342E-04 -0.682285497391E-04 -0.704471719375E-04
 -0.727379381919E-04 -0.751031944470E-04 -0.775453629312E-04 -0.800669446381E-04 -0.826705218871E-04
 -0.853587609683E-04 -0.881344148727E-04 -0.910003261118E-04 -0.939594296284E-04 -0.970147558022E-04
 -0.100169433553E-03 -0.103426693546E-03 -0.106789871499E-03 -0.110262411598E-03 -0.113847870026E-03
 -0.117549918606E-03 -0.121372348556E-03 -0.125319074377E-03 -0.129394137858E-03 -0.133601712220E-03
 -0.137946106383E-03 -0.142431769383E-03 -0.147063294929E-03 -0.151845426105E-03 -0.156783060226E-03
 -0.161881253858E-03 -0.167145227993E-03 -0.172580373394E-03 -0.178192256120E-03 -0.183986623224E-03
 -0.189969408638E-03 -0.196146739250E-03 -0.202524941178E-03 -0.209110546250E-03 -0.215910298692E-03
 -0.222931162033E-03 -0.230180326241E-03 -0.237665215079E-03 -0.245393493715E-03 -0.253373076566E-03
 -0.261612135406E-03 -0.270119107732E-03 -0.278902705406E-03 -0.287971923579E-03 -0.297336049897E-03
 -0.307004674018E-03 -0.316987697427E-03 -0.327295343579E-03 -0.337938168370E-03 -0.348927070942E-03
 -0.360273304847E-03 -0.371988489574E-03 -0.384084622441E-03 -0.396574090887E-03 -0.409469685156E-03
 -0.422784611392E-03 -0.436532505165E-03 -0.450727445434E-03 -0.465383968965E-03 -0.480517085214E-03
 -0.496142291701E-03 -0.512275589876E-03 -0.528933501510E-03 -0.546133085605E-03 -0.563891955873E-03
 -0.582228298763E-03 -0.601160892091E-03 -0.620709124261E-03 -0.640893014127E-03 -0.661733231483E-03
 -0.683251118237E-03 -0.705468710255E-03 -0.728408759933E-03 -0.752094759488E-03 -0.776550965016E-03
 -0.801802421326E-03 -0.827874987585E-03 -0.854795363797E-03 -0.882591118136E-03 -0.911290715176E-03
 -0.940923545034E-03 -0.971519953459E-03 -0.100311127290E-02 -0.103572985460E-02 -0.106940910169E-02
 -0.110418350339E-02 -0.114008867036E-02 -0.117716137110E-02 -0.121543956961E-02 -0.125496246426E-02
 -0.129577052792E-02 -0.133790554937E-02 -0.138141067610E-02 -0.142633045844E-02 -0.147271089519E-02
 -0.152059948068E-02 -0.157004525339E-02 -0.162109884612E-02 -0.167381253785E-02 -0.172824030716E-02
 -0.178443788754E-02 -0.184246282438E-02 -0.190237453384E-02 -0.196423436366E-02 -0.202810565592E-02
 -0.209405381182E-02 -0.216214635858E-02 -0.223245301853E-02 -0.230504578037E-02 -0.237999897284E-02
 -0.245738934068E-02 -0.253729612312E-02 -0.261980113488E-02 -0.270498884979E-02 -0.279294648717E-02
 -0.288376410089E-02 -0.297753467144E-02 -0.307435420093E-02 -0.317432181112E-02 -0.327753984464E-02
 -0.338411396957E-02 -0.349415328724E-02 -0.360777044362E-02 -0.372508174428E-02 -0.384620727307E-02
 -0.397127101455E-02 -0.410040098048E-02 -0.423372934027E-02 -0.437139255574E-02 -0.451353152007E-02
 -0.466029170136E-02 -0.481182329072E-02 -0.496828135507E-02 -0.512982599495E-02 -0.529662250726E-02
 -0.546884155329E-02 -0.564665933207E-02 -0.583025775925E-02 -0.601982465172E-02 -0.621555391804E-02
 -0.641764575495E-02 -0.662630685013E-02 -0.684175059135E-02 -0.706419728222E-02 -0.729387436477E-02
 -0.753101664905E-02 -0.777586654986E-02 -0.802867433099E-02 -0.828969835706E-02 -0.855920535313E-02
 -0.883747067252E-02 -0.912477857280E-02 -0.942142250035E-02 -0.972770538366E-02 -0.100439399356E-01
 -0.103704489650E-01 -0.107075656976E-01 -0.110556341065E-01 -0.114150092531E-01 -0.117860576376E-01
 -0.121691575605E-01 -0.125646994942E-01 -0.129730864658E-01 -0.133947344511E-01 -0.138300727800E-01
 -0.142795445529E-01 -0.147436070699E-01 -0.152227322709E-01 -0.157174071890E-01 -0.162281344155E-01
 -0.167554325777E-01 -0.172998368294E-01 -0.178618993544E-01 -0.184421898827E-01 -0.190412962200E-01
 -0.196598247898E-01 -0.202984011888E-01 -0.209576707558E-01 -0.216382991527E-01 -0.223409729586E-01
 -0.230664002773E-01 -0.238153113556E-01 -0.245884592151E-01 -0.253866202947E-01 -0.262105951044E-01
 -0.270612088893E-01 -0.279393123040E-01 -0.288457820946E-01 -0.297815217894E-01 -0.307474623958E-01
 -0.317445631023E-01 -0.327738119840E-01 -0.338362267100E-01 -0.349328552502E-01 -0.360647765798E-01
 -0.372331013777E-01 -0.384389727174E-01 -0.396835667450E-01 -0.409680933429E-01 -0.422937967718E-01
 -0.436619562896E-01 -0.450738867392E-01 -0.465309391002E-01 -0.480345009974E-01 -0.495859971601E-01
 -0.511868898203E-01 -0.528386790452E-01 -0.545429029893E-01 -0.563011380572E-01 -0.581149989638E-01
 -0.599861386771E-01 -0.619162482280E-01 -0.639070563707E-01 -0.659603290728E-01 -0.680778688150E-01
 -0.702615136757E-01 -0.725131361759E-01 -0.748346418536E-01 -0.772279675364E-01 -0.796950792787E-01
 -0.822379699214E-01 -0.848586562341E-01 -0.875591755906E-01 -0.903415821257E-01 -0.932079423170E-01
 -0.961603299258E-01 -0.992008202301E-01 -0.102331483470E+00 -0.105554377424E+00 -0.108871539019E+00
 -0.112284974876E+00 -0.115796650675E+00 -0.119408479221E+00 -0.123122307073E+00 -0.126939899579E+00
 -0.130862924173E+00 -0.134892931739E+00 -0.139031335857E+00 -0.143279389708E+00 -0.147638160418E+00
 -0.152108500576E+00 -0.156691016662E+00 -0.161386034065E+00 -0.166193558385E+00 -0.171113232657E+00
 -0.176144290111E+00 -0.181285502058E+00 -0.186535120465E+00 -0.191890814735E+00 -0.197349602181E+00
 -0.202907771671E+00 -0.208560799852E+00 -0.214303259368E+00 -0.220128718437E+00 -0.226029631148E+00
 -0.231997217813E+00 -0.238021334704E+00 -0.244090332540E+00 -0.250190903067E+00 -0.256307913171E+00
 -0.262424226012E+00 -0.268520508774E+00 -0.274575026802E+00 -0.280563424081E+00 -0.286458490306E+00
 -0.292229915122E+00 -0.297844030590E+00 -0.303263543492E+00 -0.308447259770E+00 -0.313349804314E+00
 -0.317921340320E+00 -0.322107293749E+00 -0.325848089948E+00 -0.329078911309E+00 -0.331729486973E+00
 -0.333723928093E+00 -0.334980625015E+00 -0.335412225996E+00 -0.334925720719E+00 -0.333422655885E+00
 -0.330799514483E+00 -0.326948294892E+00 -0.321757330618E+00 -0.315112395928E+00 -0.306898146701E+00
 -0.296999948975E+00 -0.285306149438E+00 -0.271710841789E+00 -0.256117179644E+00 -0.238441279494E+00
 -0.218616744926E+00 -0.196599824754E+00 -0.172375191341E+00 -0.145962290152E+00 -0.117422166176E+00
 -0.868628939850E-01 -0.544882657877E-01 -0.205507065476E-01  0.146797318253E-01  0.509251077581E-01
  0.879031991508E-01  0.125331097938E+00  0.162928735989E+00  0.200422276192E+00  0.237547281440E+00
  0.274051550858E+00  0.309697496387E+00  0.344263936753E+00  0.377547225183E+00  0.409361700100E+00
  0.439539553569E+00  0.467930310912E+00  0.494400201285E+00  0.518831724657E+00  0.541123702895E+00
  0.561192032538E+00  0.578971226954E+00  0.594416582100E+00  0.607506310314E+00  0.618242224454E+00
  0.626646866105E+00  0.632755335774E+00  0.636602569259E+00  0.638210736470E+00  0.637583268841E+00
  0.634708611149E+00  0.629570843426E+00  0.622161679979E+00  0.612490502546E+00  0.600592071361E+00
  0.586532763518E+00  0.570415638541E+00  0.552383121846E+00  0.532616262600E+00  0.511329480531E+00
  0.488761728542E+00  0.465165807003E+00  0.440797732314E+00  0.415907719325E+00  0.390733422805E+00
  0.365495478418E+00  0.340395108291E+00  0.315613348712E+00  0.291311453341E+00  0.267632041415E+00
 ae wavefunction
 -0.145768944973E-02 -0.150073124025E-02 -0.154503248319E-02 -0.159062935297E-02 -0.163755901907E-02
 -0.168585967065E-02 -0.173557054166E-02 -0.178673193630E-02 -0.183938525499E-02 -0.189357302064E-02
 -0.194933890539E-02 -0.200672775775E-02 -0.206578562999E-02 -0.212655980601E-02 -0.218909882947E-02
 -0.225345253223E-02 -0.231967206309E-02 -0.238780991677E-02 -0.245791996311E-02 -0.253005747646E-02
 -0.260427916525E-02 -0.268064320162E-02 -0.275920925113E-02 -0.284003850253E-02 -0.292319369744E-02
 -0.300873915999E-02 -0.309674082624E-02 -0.318726627344E-02 -0.328038474901E-02 -0.337616719906E-02
 -0.347468629656E-02 -0.357601646892E-02 -0.368023392493E-02 -0.378741668097E-02 -0.389764458634E-02
 -0.401099934764E-02 -0.412756455204E-02 -0.424742568927E-02 -0.437067017226E-02 -0.449738735619E-02
 -0.462766855579E-02 -0.476160706081E-02 -0.489929814925E-02 -0.504083909839E-02 -0.518632919319E-02
 -0.533586973188E-02 -0.548956402861E-02 -0.564751741264E-02 -0.580983722397E-02 -0.597663280506E-02
 -0.614801548822E-02 -0.632409857842E-02 -0.650499733109E-02 -0.669082892449E-02 -0.688171242631E-02
 -0.707776875392E-02 -0.727912062789E-02 -0.748589251826E-02 -0.769821058295E-02 -0.791620259784E-02
 -0.813999787783E-02 -0.836972718827E-02 -0.860552264611E-02 -0.884751761004E-02 -0.909584655883E-02
 -0.935064495712E-02 -0.961204910785E-02 -0.988019599031E-02 -0.101552230831E-01 -0.104372681707E-01
 -0.107264691332E-01 -0.110229637173E-01 -0.113268892879E-01 -0.116383825596E-01 -0.119575793059E-01
 -0.122846140450E-01 -0.126196197017E-01 -0.129627272427E-01 -0.133140652854E-01 -0.136737596763E-01
 -0.140419330402E-01 -0.144187042963E-01 -0.148041881408E-01 -0.151984944929E-01 -0.156017279042E-01
 -0.160139869276E-01 -0.164353634452E-01 -0.168659419520E-01 -0.173057987942E-01 -0.177550013598E-01
 -0.182136072183E-01 -0.186816632087E-01 -0.191592044727E-01 -0.196462534305E-01 -0.201428186975E-01
 -0.206488939395E-01 -0.211644566630E-01 -0.216894669398E-01 -0.222238660623E-01 -0.227675751277E-01
 -0.233204935489E-01 -0.238824974895E-01 -0.244534382210E-01 -0.250331404009E-01 -0.256214002686E-01
 -0.262179837583E-01 -0.268226245271E-01 -0.274350218975E-01 -0.280548387131E-01 -0.286816991066E-01
 -0.293151861802E-01 -0.299548395995E-01 -0.306001530992E-01 -0.312505719053E-01 -0.319054900720E-01
 -0.325642477390E-01 -0.332261283107E-01 -0.338903555622E-01 -0.345560906773E-01 -0.352224292242E-01
 -0.358883980769E-01 -0.365529522914E-01 -0.372149719445E-01 -0.378732589501E-01 -0.385265338632E-01
 -0.391734326886E-01 -0.398125037098E-01 -0.404422043586E-01 -0.410608981453E-01 -0.416668516737E-01
 -0.422582317683E-01 -0.428331027399E-01 -0.433894238253E-01 -0.439250468329E-01 -0.444377140343E-01
 -0.449250563440E-01 -0.453845918311E-01 -0.458137246139E-01 -0.462097441904E-01 -0.465698252605E-01
 -0.468910281039E-01 -0.471702995779E-01 -0.474044748059E-01 -0.475902796318E-01 -0.477243339183E-01
 -0.478031557744E-01 -0.478231667990E-01 -0.477806984324E-01 -0.476719995129E-01 -0.474932451369E-01
 -0.472405469267E-01 -0.469099648098E-01 -0.464975204196E-01 -0.459992122245E-01 -0.454110324967E-01
 -0.447289862282E-01 -0.439491121023E-01 -0.430675056242E-01 -0.420803445099E-01 -0.409839164272E-01
 -0.397746491716E-01 -0.384491433528E-01 -0.370042076503E-01 -0.354368966843E-01 -0.337445515267E-01
 -0.319248428558E-01 -0.299758167338E-01 -0.278959429540E-01 -0.256841658730E-01 -0.233399576057E-01
 -0.208633734153E-01 -0.182551090854E-01 -0.155165600075E-01 -0.126498816604E-01 -0.965805109357E-02
 -0.654492896570E-02 -0.331532161706E-02  0.249574087266E-04  0.346902704663E-02  0.700888031090E-02
  0.106353285918E-01  0.143379494897E-01  0.181050391004E-01  0.219235697560E-01  0.257791543368E-01
  0.296560184022E-01  0.335369815311E-01  0.374034493986E-01  0.412354182273E-01  0.450114933240E-01
  0.487089234419E-01  0.523036526889E-01  0.557703916455E-01  0.590827092551E-01  0.622131469289E-01
  0.651333561724E-01  0.678142608896E-01  0.702262453653E-01  0.723393687262E-01  0.741236064523E-01
  0.755491192211E-01  0.765865490345E-01  0.772073421887E-01  0.773840982102E-01  0.770909433879E-01
  0.763039269835E-01  0.750014376063E-01  0.731646365843E-01  0.707779044764E-01  0.678292961341E-01
  0.643109989714E-01  0.602197883322E-01  0.555574730847E-01  0.503313238374E-01  0.445544754828E-01
  0.382462951535E-01  0.314327061524E-01  0.241464580037E-01  0.164273325206E-01  0.832227573561E-02
 -0.114554211691E-03 -0.882183247678E-02 -0.177312143080E-01 -0.267675897491E-01 -0.358494510140E-01
 -0.448893759886E-01 -0.537946310886E-01 -0.624678978686E-01 -0.708081297294E-01 -0.787115460753E-01
 -0.860727683852E-01 -0.927860948042E-01 -0.987468991823E-01 -0.103853133301E+00 -0.108006909894E+00
 -0.111116146006E+00 -0.113096246436E+00 -0.113871804129E+00 -0.113378290155E+00 -0.111563702695E+00
 -0.108390142963E+00 -0.103835285840E+00 -0.978937132813E-01 -0.905780787468E-01 -0.819200708841E-01
 -0.719711446288E-01 -0.608029881574E-01 -0.485076950597E-01 -0.351976131706E-01 -0.210048451217E-01
 -0.608038116568E-02  0.940714786386E-02  0.252731012283E-01  0.413188384990E-01  0.573340996384E-01
  0.730997415040E-01  0.883908079468E-01  0.102979877204E+00  0.116640552077E+00  0.129150852480E+00
  0.140296250531E+00  0.149872328547E+00  0.157687555915E+00  0.163566954303E+00  0.167356718472E+00
  0.168928733610E+00  0.168184018927E+00  0.165055114615E+00  0.159507829325E+00  0.151542560340E+00
  0.141195164872E+00  0.128537270525E+00  0.113675925000E+00  0.967525469680E-01  0.779412049670E-01
  0.574462915606E-01  0.354996749835E-01  0.123574102317E-01 -0.117039132662E-01 -0.363911149055E-01
 -0.613985865146E-01 -0.864126051882E-01 -0.111115721742E+00 -0.135191148638E+00 -0.158327070448E+00
 -0.180220803130E+00 -0.200582735901E+00 -0.219139994167E+00 -0.235639761967E+00 -0.249852178071E+00
 -0.261572690473E+00 -0.270623739962E+00 -0.276855719701E+00 -0.280147354782E+00 -0.280405884539E+00
 -0.277567499738E+00 -0.271598240744E+00 -0.262495146296E+00 -0.250287186808E+00 -0.235035590568E+00
 -0.216833416497E+00 -0.195804429612E+00 -0.172101402695E+00 -0.145903954527E+00 -0.117416002903E+00
 -0.868628939850E-01 -0.544882657877E-01 -0.205507065476E-01  0.146797318253E-01  0.509251077581E-01
  0.879031991508E-01  0.125331097938E+00  0.162928735989E+00  0.200422276192E+00  0.237547281440E+00
  0.274051550858E+00  0.309697496387E+00  0.344263936753E+00  0.377547225183E+00  0.409361700100E+00
  0.439539553569E+00  0.467930310912E+00  0.494400201285E+00  0.518831724657E+00  0.541123702895E+00
  0.561192032538E+00  0.578971226954E+00  0.594416582100E+00  0.607506310314E+00  0.618242224454E+00
  0.626646866105E+00  0.632755335774E+00  0.636602569259E+00  0.638210736470E+00  0.637583268841E+00
  0.634708611149E+00  0.629570843426E+00  0.622161679979E+00  0.612490502546E+00  0.600592071361E+00
  0.586532763518E+00  0.570415638541E+00  0.552383121846E+00  0.532616262600E+00  0.511329480531E+00
  0.488761728542E+00  0.465165807003E+00  0.440797732314E+00  0.415907719325E+00  0.390733422805E+00
  0.365495478418E+00  0.340395108291E+00  0.315613348712E+00  0.291311453341E+00  0.267632041415E+00
 pseudo wavefunction
  0.157069088697E-07  0.167450161482E-07  0.178517344261E-07  0.190315983689E-07  0.202894423488E-07
  0.216304202535E-07  0.230600266033E-07  0.245841190645E-07  0.262089424507E-07  0.279411543101E-07
  0.297878522042E-07  0.317566027895E-07  0.338554728206E-07  0.360930622035E-07  0.384785392326E-07
  0.410216781564E-07  0.437328992274E-07  0.466233113971E-07  0.497047578344E-07  0.529898644514E-07
  0.564920916370E-07  0.602257894092E-07  0.642062562132E-07  0.684498016049E-07  0.729738130774E-07
  0.777968273052E-07  0.829386060954E-07  0.884202173603E-07  0.942641214407E-07  0.100494263135E-06
  0.107136169809E-06  0.114217055996E-06  0.121765934899E-06  0.129813737275E-06  0.138393438168E-06
  0.147540192018E-06  0.157291476710E-06  0.167687247128E-06  0.178770098871E-06  0.190585442780E-06
  0.203181691008E-06  0.216610455380E-06  0.230926758868E-06  0.246189261045E-06  0.262460498431E-06
  0.279807140731E-06  0.298300264010E-06  0.318015641916E-06  0.339034056154E-06  0.361441627482E-06
  0.385330168580E-06  0.410797560243E-06  0.437948152434E-06  0.466893191848E-06  0.497751277732E-06
  0.530648847834E-06  0.565720696461E-06  0.603110526788E-06  0.642971539662E-06  0.685467061325E-06
  0.730771212623E-06  0.779069622444E-06  0.830560188310E-06  0.885453887238E-06  0.943975640189E-06
  0.100636523365E-05  0.107287830214E-05  0.114378737562E-05  0.121938299616E-05  0.129997490840E-05
  0.138589332866E-05  0.147749029798E-05  0.157514112454E-05  0.167924592147E-05  0.179023124617E-05
  0.190855184815E-05  0.203469253223E-05  0.216917014501E-05  0.231253569249E-05  0.246537659778E-05
  0.262831910794E-05  0.280203085993E-05  0.298722361611E-05  0.318465618054E-05  0.339513750808E-05
  0.361953001886E-05  0.385875313189E-05  0.411378703221E-05  0.438567668692E-05  0.467553612672E-05
  0.498455301040E-05  0.531399349093E-05  0.566520740323E-05  0.603963379472E-05  0.643880682146E-05
  0.686436203384E-05  0.731804307779E-05  0.780170883879E-05  0.831734105804E-05  0.886705245195E-05
  0.945309536821E-05  0.100778710139E-04  0.107439392936E-04  0.114540292973E-04  0.122110504817E-04
  0.130181045905E-04  0.138784983621E-04  0.147957570774E-04  0.157736390026E-04  0.168161507864E-04
  0.179275638752E-04  0.191124320123E-04  0.203756098941E-04  0.217222730583E-04  0.231579390873E-04
  0.246884902117E-04  0.263201974080E-04  0.280597460883E-04  0.299142634875E-04  0.318913478601E-04
  0.339990996058E-04  0.362461544522E-04  0.386417188290E-04  0.411956075801E-04  0.439182841666E-04
  0.468209035264E-04  0.499153577642E-04  0.532143248610E-04  0.567313206002E-04  0.604807539246E-04
  0.644779859490E-04  0.687393928719E-04  0.732824330407E-04  0.781257184482E-04  0.832890909488E-04
  0.887937035100E-04  0.946621068277E-04  0.100918341662E-03  0.107588037267E-03  0.114698516327E-03
  0.122278906808E-03  0.130360261204E-03  0.138975683649E-03  0.148160465420E-03  0.157952229385E-03
  0.168391083978E-03  0.179519787338E-03  0.191383922279E-03  0.204032082794E-03  0.217516072874E-03
  0.231891118429E-03  0.247216093185E-03  0.263553759482E-03  0.280971024938E-03  0.299539216035E-03
  0.319334369731E-03  0.340437544287E-03  0.362935150572E-03  0.386919305179E-03  0.412488206799E-03
  0.439746537367E-03  0.468805889609E-03  0.499785222712E-03  0.532811347969E-03  0.568019446351E-03
  0.605553620099E-03  0.645567480556E-03  0.688224774599E-03  0.733700052208E-03  0.782179377820E-03
  0.833861088361E-03  0.888956600948E-03  0.947691273522E-03  0.101030532183E-02  0.107705479642E-02
  0.114821262350E-02  0.122406971384E-02  0.130493614409E-02  0.139114241515E-02  0.148304079257E-02
  0.158100673426E-02  0.168544041111E-02  0.179676832638E-02  0.191544504033E-02  0.204195500653E-02
  0.217681452725E-02  0.232057383519E-02  0.247381930965E-02  0.263717583567E-02  0.281130931487E-02
  0.299692933774E-02  0.319479202718E-02  0.340570306404E-02  0.363052090584E-02  0.387016021047E-02
  0.412559547741E-02  0.439786491968E-02  0.468807458033E-02  0.499740270819E-02  0.532710440822E-02
  0.567851658258E-02  0.605306317959E-02  0.645226076803E-02  0.687772445577E-02  0.733117417191E-02
  0.781444133287E-02  0.832947591352E-02  0.887835394537E-02  0.946328546450E-02  0.100866229329E-01
  0.107508701573E-01  0.114586917308E-01  0.122129230225E-01  0.130165807409E-01  0.138728740982E-01
  0.147852166018E-01  0.157572384984E-01  0.167927998992E-01  0.178960046104E-01  0.190712146945E-01
  0.203230657867E-01  0.216564831879E-01  0.230766987547E-01  0.245892686046E-01  0.262000916479E-01
  0.279154289586E-01  0.297419239864E-01  0.316866236095E-01  0.337570000164E-01  0.359609734014E-01
  0.383069354414E-01  0.408037735143E-01  0.434608956028E-01  0.462882558103E-01  0.492963803962E-01
  0.524963942164E-01  0.559000474267E-01  0.595197422800E-01  0.633685598106E-01  0.674602861644E-01
  0.718094382848E-01  0.764312886191E-01  0.813418884513E-01  0.865580894028E-01  0.920975625746E-01
  0.979788147218E-01  0.104221200764E+00  0.110844931836E+00  0.117871077973E+00  0.125321564405E+00
  0.133219160303E+00  0.141587458669E+00  0.150450845915E+00  0.159834459492E+00  0.169764131759E+00
  0.180266318078E+00  0.191368006919E+00  0.203096609544E+00  0.215479826605E+00  0.228545488796E+00
  0.242321368421E+00  0.256834958584E+00  0.272113216455E+00  0.288182266917E+00  0.305067062738E+00
  0.322790997352E+00  0.341375466281E+00  0.360839373321E+00  0.381198577827E+00  0.402465279724E+00
  0.424647339469E+00  0.447747530864E+00  0.471762725727E+00  0.496683010722E+00  0.522490738412E+00
  0.549159516780E+00  0.576653144150E+00  0.604924499689E+00  0.633914403594E+00  0.663550465643E+00
  0.693745946088E+00  0.724398658963E+00  0.755389954652E+00  0.786583826000E+00  0.817826190295E+00
  0.848944407684E+00  0.879747104947E+00  0.910024381361E+00  0.939548480071E+00  0.968075013203E+00
  0.995344830646E+00  0.102108661980E+01  0.104502031500E+01  0.106686137859E+01  0.108632598931E+01
  0.110313713397E+01  0.111703154468E+01  0.112776735209E+01  0.113513223428E+01  0.113895172937E+01
  0.113909724838E+01  0.113549317479E+01  0.112812227534E+01  0.111702848101E+01  0.110231594409E+01
  0.108414315818E+01  0.106271087178E+01  0.103824257315E+01  0.101095651953E+01  0.981028684690E+00
  0.948546662580E+00  0.913467281990E+00  0.875937112055E+00  0.836382231999E+00  0.795243835165E+00
  0.752955081834E+00  0.709935257595E+00  0.666584216750E+00  0.623277304438E+00  0.580360990335E+00
  0.538149450567E+00  0.496922277535E+00  0.456923392524E+00  0.418361112774E+00  0.381409213994E+00
  0.346208753980E+00  0.312870377209E+00  0.281476774388E+00  0.252084901065E+00  0.224727508351E+00
  0.199413662711E+00  0.176128423803E+00  0.154832642106E+00  0.135464313933E+00  0.117942306374E+00
  0.102171752445E+00  0.880494421761E-01  0.754679703942E-01  0.643184694444E-01  0.544923722131E-01
  0.458826500438E-01  0.383847404472E-01  0.318972201320E-01  0.263222600754E-01  0.215659471344E-01
  0.175385905565E-01  0.141550927518E-01  0.113353932148E-01  0.900493219650E-02  0.709506006490E-02
  0.554332975756E-02  0.429363648339E-02  0.329619562683E-02  0.250737002889E-02  0.188937021569E-02
 ae wavefunction
 -0.162056780903E-04 -0.171309638584E-04 -0.181067848862E-04 -0.191360367045E-04 -0.202217752624E-04
 -0.213672262328E-04 -0.225757948463E-04 -0.238510762841E-04 -0.251968666641E-04 -0.266171746545E-04
 -0.281162337532E-04 -0.296985152710E-04 -0.313687420631E-04 -0.331319030503E-04 -0.349932685798E-04
 -0.369584066716E-04 -0.390332002114E-04 -0.412238651299E-04 -0.435369696525E-04 -0.459794546541E-04
 -0.485586552078E-04 -0.512823233853E-04 -0.541586523915E-04 -0.571963021023E-04 -0.604044260999E-04
 -0.637927002888E-04 -0.673713531845E-04 -0.711511979775E-04 -0.751436664764E-04 -0.793608450397E-04
 -0.838155126183E-04 -0.885211810249E-04 -0.934921375722E-04 -0.987434902098E-04 -0.104291215315E-03
 -0.110152208289E-03 -0.116344337119E-03 -0.122886499098E-03 -0.129798680862E-03 -0.137102021964E-03
 -0.144818882168E-03 -0.152972912709E-03 -0.161589131716E-03 -0.170694004073E-03 -0.180315525955E-03
 -0.190483314320E-03 -0.201228701638E-03 -0.212584836164E-03 -0.224586788078E-03 -0.237271661818E-03
 -0.250678714968E-03 -0.264849484081E-03 -0.279827917820E-03 -0.295660517839E-03 -0.312396487843E-03
 -0.330087891278E-03 -0.348789818153E-03 -0.368560561479E-03 -0.389461803881E-03 -0.411558814931E-03
 -0.434920659796E-03 -0.459620419819E-03 -0.485735425680E-03 -0.513347503812E-03 -0.542543236795E-03
 -0.573414238447E-03 -0.606057444411E-03 -0.640575419041E-03 -0.677076679423E-03 -0.715676037428E-03
 -0.756494960701E-03 -0.799661953552E-03 -0.845312958728E-03 -0.893591781103E-03 -0.944650534358E-03
 -0.998650111731E-03 -0.105576068201E-02 -0.111616221191E-02 -0.118004501607E-02 -0.124761033591E-02
 -0.131907094860E-02 -0.139465180748E-02 -0.147459071525E-02 -0.155913903127E-02 -0.164856241436E-02
 -0.174314160245E-02 -0.184317323064E-02 -0.194897068877E-02 -0.206086502018E-02 -0.217920586296E-02
 -0.230436243497E-02 -0.243672456406E-02 -0.257670376474E-02 -0.272473436255E-02 -0.288127466726E-02
 -0.304680819601E-02 -0.322184494727E-02 -0.340692272659E-02 -0.360260852463E-02 -0.380949994818E-02
 -0.402822670420E-02 -0.425945213722E-02 -0.450387481967E-02 -0.476223019460E-02 -0.503529227007E-02
 -0.532387536368E-02 -0.562883589571E-02 -0.595107422839E-02 -0.629153654876E-02 -0.665121679129E-02
 -0.703115859652E-02 -0.743245730043E-02 -0.785626194891E-02 -0.830377733058E-02 -0.877626602013E-02
 -0.927505042317E-02 -0.980151481254E-02 -0.103571073443E-01 -0.109433420406E-01 -0.115618007240E-01
 -0.122141348884E-01 -0.129020674853E-01 -0.136273946086E-01 -0.143919870512E-01 -0.151977917119E-01
 -0.160468328219E-01 -0.169412129624E-01 -0.178831138381E-01 -0.188747967717E-01 -0.199186028768E-01
 -0.210169528688E-01 -0.221723464624E-01 -0.233873613081E-01 -0.246646514091E-01 -0.260069449594E-01
 -0.274170415400E-01 -0.288978086004E-01 -0.304521771549E-01 -0.320831366115E-01 -0.337937286503E-01
 -0.355870400611E-01 -0.374661944461E-01 -0.394343426863E-01 -0.414946520678E-01 -0.436502939569E-01
 -0.459044299088E-01 -0.482601960920E-01 -0.507206859032E-01 -0.532889306481E-01 -0.559678781568E-01
 -0.587603692032E-01 -0.616691115969E-01 -0.646966518142E-01 -0.678453440395E-01 -0.711173164888E-01
 -0.745144348941E-01 -0.780382630345E-01 -0.816900202083E-01 -0.854705355543E-01 -0.893801991440E-01
 -0.934189097888E-01 -0.975860195231E-01 -0.101880274757E+00 -0.106299754119E+00 -0.110841803048E+00
 -0.115502965234E+00 -0.120278911056E+00 -0.125164363215E+00 -0.130153019832E+00 -0.135237475324E+00
 -0.140409139486E+00 -0.145658155225E+00 -0.150973315559E+00 -0.156341980491E+00 -0.161749994548E+00
 -0.167181605788E+00 -0.172619387232E+00 -0.178044161702E+00 -0.183434931168E+00 -0.188768811779E+00
 -0.194020975856E+00 -0.199164602273E+00 -0.204170836834E+00 -0.209008764525E+00 -0.213645395806E+00
 -0.218045669411E+00 -0.222172474442E+00 -0.225986694684E+00 -0.229447278204E+00 -0.232511335227E+00
 -0.235134267199E+00 -0.237269929706E+00 -0.238870831705E+00 -0.239888373245E+00 -0.240273123601E+00
 -0.239975141531E+00 -0.238944339163E+00 -0.237130890802E+00 -0.234485687656E+00 -0.230960839078E+00
 -0.226510220447E+00 -0.221090067178E+00 -0.214659613694E+00 -0.207181775343E+00 -0.198623870390E+00
 -0.188958378169E+00 -0.178163728397E+00 -0.166225115436E+00 -0.153135330004E+00 -0.138895599477E+00
 -0.123516426530E+00 -0.107018414426E+00 -0.894330658882E-01 -0.708035410803E-01 -0.511853590125E-01
 -0.306470254971E-01 -0.927056985015E-02  0.128480282148E-01  0.355985404437E-01  0.588563395134E-01
  0.824824141777E-01  0.106323566393E+00  0.130212803920E+00  0.153969938428E+00  0.177402396029E+00
  0.200306246241E+00  0.222467458021E+00  0.243663398004E+00  0.263664593697E+00  0.282236787563E+00
  0.299143298138E+00  0.314147680745E+00  0.327016651275E+00  0.337523221755E+00  0.345450000494E+00
  0.350592620663E+00  0.352763264521E+00  0.351794243359E+00  0.347541582348E+00  0.339888551475E+00
  0.328749080839E+00  0.314070998758E+00  0.295839031848E+00  0.274077505901E+00  0.248852684639E+00
  0.220274681010E+00  0.188498873363E+00  0.153726757775E+00  0.116206169035E+00  0.762308075875E-01
  0.341390190481E-01 -0.968821339655E-02 -0.548300869889E-01 -0.100829616338E+00 -0.147198089622E+00
 -0.193420342014E+00 -0.238960827629E+00 -0.283270387789E+00 -0.325793398865E+00 -0.365974672276E+00
 -0.403265386178E+00 -0.437127970076E+00 -0.467041361143E+00 -0.492508980007E+00 -0.513069889316E+00
 -0.528310247062E+00 -0.537872197701E+00 -0.541460162726E+00 -0.538845763021E+00 -0.529872058879E+00
 -0.514457100641E+00 -0.492596470579E+00 -0.464364483032E+00 -0.429913860340E+00 -0.389473884072E+00
 -0.343347143697E+00 -0.291905055325E+00 -0.235582325249E+00 -0.174870518575E+00 -0.110310876125E+00
 -0.424865132409E-01  0.279858680755E-01  0.100464617397E+00  0.174291978249E+00  0.248802980543E+00
  0.323334227030E+00  0.397232427041E+00  0.469862537654E+00  0.540615366067E+00  0.608914417595E+00
  0.674221658720E+00  0.736041753013E+00  0.793924427575E+00  0.847465112183E+00  0.896304767681E+00
  0.940130317975E+00  0.978676713065E+00  0.101173050817E+01  0.103913384595E+01  0.106078760906E+01
  0.107665306966E+01  0.108675198126E+01  0.109116535154E+01  0.109003115744E+01  0.108354117699E+01
  0.107193705364E+01  0.105550568858E+01  0.103457407523E+01  0.100950370028E+01  0.980684645974E+00
  0.948529516277E+00  0.913467281990E+00  0.875937112055E+00  0.836382231999E+00  0.795243835165E+00
  0.752955081834E+00  0.709935257595E+00  0.666584216750E+00  0.623277304438E+00  0.580360990335E+00
  0.538149450567E+00  0.496922277535E+00  0.456923392524E+00  0.418361112774E+00  0.381409213994E+00
  0.346208753980E+00  0.312870377209E+00  0.281476774388E+00  0.252084901065E+00  0.224727508351E+00
  0.199413662711E+00  0.176128423803E+00  0.154832642106E+00  0.135464313933E+00  0.117942306374E+00
  0.102171752445E+00  0.880494421761E-01  0.754679703942E-01  0.643184694444E-01  0.544923722131E-01
  0.458826500438E-01  0.383847404472E-01  0.318972201320E-01  0.263222600754E-01  0.215659471344E-01
  0.175385905565E-01  0.141550927518E-01  0.113353932148E-01  0.900493219650E-02  0.709506006490E-02
  0.554332975756E-02  0.429363648339E-02  0.329619562683E-02  0.250737002889E-02  0.188937021569E-02
 pseudo wavefunction
 -0.238286934044E-07 -0.254035889012E-07 -0.270825730179E-07 -0.288725252208E-07 -0.307807796568E-07
 -0.328151552040E-07 -0.349839875089E-07 -0.372961631408E-07 -0.397611560038E-07 -0.423890661547E-07
 -0.451906611877E-07 -0.481774203525E-07 -0.513615815903E-07 -0.547561916770E-07 -0.583751596811E-07
 -0.622333139547E-07 -0.663464628911E-07 -0.707314596981E-07 -0.754062714526E-07 -0.803900527180E-07
 -0.857032240290E-07 -0.913675555619E-07 -0.974062563363E-07 -0.103844069311E-06 -0.110707372766E-06
 -0.118024288384E-06 -0.125824796479E-06 -0.134140858833E-06 -0.143006549660E-06 -0.152458195219E-06
 -0.162534522657E-06 -0.173276818692E-06 -0.184729098780E-06 -0.196938287460E-06 -0.209954410628E-06
 -0.223830800508E-06 -0.238624314180E-06 -0.254395566540E-06 -0.271209178668E-06 -0.289134042604E-06
 -0.308243603624E-06 -0.328616161177E-06 -0.350335189708E-06 -0.373489680683E-06 -0.398174507224E-06
 -0.424490812840E-06 -0.452546425854E-06 -0.482456301213E-06 -0.514342991506E-06 -0.548337149109E-06
 -0.584578061519E-06 -0.623214222067E-06 -0.664403938352E-06 -0.708315980890E-06 -0.755130274630E-06
 -0.805038636178E-06 -0.858245559736E-06 -0.914969055000E-06 -0.975441540425E-06 -0.103991079553E-05
 -0.110864097615E-05 -0.118191369676E-05 -0.126002918439E-05 -0.134330750874E-05 -0.143208989363E-05
 -0.152674011513E-05 -0.162764599205E-05 -0.173522097502E-05 -0.184990584053E-05 -0.197217049691E-05
 -0.210251590979E-05 -0.224147615465E-05 -0.238962060518E-05 -0.254755626617E-05 -0.271593026060E-05
 -0.289543248116E-05 -0.308679841697E-05 -0.329081216707E-05 -0.350830965322E-05 -0.374018204484E-05
 -0.398737941050E-05 -0.425091461059E-05 -0.453186744735E-05 -0.483138908915E-05 -0.515070678712E-05
 -0.549112890360E-05 -0.585405027285E-05 -0.624095791605E-05 -0.665343713404E-05 -0.709317800270E-05
 -0.756198229757E-05 -0.806177087620E-05 -0.859459154830E-05 -0.916262746606E-05 -0.976820606896E-05
 -0.104138086197E-04 -0.111020803705E-04 -0.118358414010E-04 -0.126180981722E-04 -0.134520558452E-04
 -0.143411314122E-04 -0.152889676965E-04 -0.162994482777E-04 -0.173767134026E-04 -0.185251769477E-04
 -0.197495445034E-04 -0.210548326523E-04 -0.224463895218E-04 -0.239299166951E-04 -0.255114925698E-04
 -0.271975972604E-04 -0.289951391458E-04 -0.309114831714E-04 -0.329544810215E-04 -0.351325032850E-04
 -0.374544737468E-04 -0.399299059449E-04 -0.425689421428E-04 -0.453823948772E-04 -0.483817912506E-04
 -0.515794201505E-04 -0.549883825882E-04 -0.586226453630E-04 -0.624970982726E-04 -0.666276151018E-04
 -0.710311186415E-04 -0.757256500016E-04 -0.807304425038E-04 -0.860660004538E-04 -0.917541831183E-04
 -0.978182942473E-04 -0.104283177510E-03 -0.111175318233E-03 -0.118522951857E-03 -0.126356179559E-03
 -0.134707091504E-03 -0.143609898237E-03 -0.153101070755E-03 -0.163219489819E-03 -0.174006605131E-03
 -0.185506605008E-03 -0.197766597268E-03 -0.210836802047E-03 -0.224770757338E-03 -0.239625538105E-03
 -0.255461989841E-03 -0.272344977540E-03 -0.290343651099E-03 -0.309531728213E-03 -0.329987795937E-03
 -0.351795632126E-03 -0.375044548072E-03 -0.399829753721E-03 -0.426252746970E-03 -0.454421728602E-03
 -0.484452044574E-03 -0.516466657421E-03 -0.550596648716E-03 -0.586981754603E-03 -0.625770936578E-03
 -0.667122989833E-03 -0.711207191613E-03 -0.758203992212E-03 -0.808305751392E-03 -0.861717523200E-03
 -0.918657892341E-03 -0.979359865460E-03 -0.104407182094E-02 -0.111305852099E-02 -0.118660219015E-02
 -0.126500366436E-02 -0.134858361548E-02 -0.143768385578E-02 -0.153266872789E-02 -0.163392658560E-02
 -0.174187137133E-02 -0.185694429667E-02 -0.197961563246E-02 -0.211038661553E-02 -0.224979147960E-02
 -0.239839961822E-02 -0.255681788827E-02 -0.272569306289E-02 -0.290571444341E-02 -0.309761664034E-02
 -0.330218253403E-02 -0.352024642650E-02 -0.375269739625E-02 -0.400048286882E-02 -0.426461241669E-02
 -0.454616180247E-02 -0.484627728068E-02 -0.516618017386E-02 -0.550717173991E-02 -0.587063834823E-02
 -0.625805698346E-02 -0.667100109640E-02 -0.711114682294E-02 -0.758027959257E-02 -0.808030114951E-02
 -0.861323701039E-02 -0.918124438349E-02 -0.978662057605E-02 -0.104318119168E-01 -0.111194232228E-01
 -0.118522278392E-01 -0.126331782851E-01 -0.134654175344E-01 -0.143522909675E-01 -0.152973590264E-01
 -0.163044106081E-01 -0.173774772325E-01 -0.185208480207E-01 -0.197390855202E-01 -0.210370424144E-01
 -0.224198791523E-01 -0.238930825345E-01 -0.254624852923E-01 -0.271342866921E-01 -0.289150741980E-01
 -0.308118462217E-01 -0.328320359867E-01 -0.349835365269E-01 -0.372747268379E-01 -0.397144991893E-01
 -0.423122876013E-01 -0.450780974769E-01 -0.480225363718E-01 -0.511568458686E-01 -0.544929345073E-01
 -0.580434117050E-01 -0.618216225771E-01 -0.658416835435E-01 -0.701185185798E-01 -0.746678959338E-01
 -0.795064650932E-01 -0.846517937445E-01 -0.901224044110E-01 -0.959378104030E-01 -0.102118550645E+00
 -0.108686222869E+00 -0.115663514588E+00 -0.123074231155E+00 -0.130943320113E+00 -0.139296890933E+00
 -0.148162229080E+00 -0.157567803223E+00 -0.167543264223E+00 -0.178119434368E+00 -0.189328285094E+00
 -0.201202901262E+00 -0.213777429759E+00 -0.227087009989E+00 -0.241167683501E+00 -0.256056279719E+00
 -0.271790274411E+00 -0.288407617216E+00 -0.305946524160E+00 -0.324445230780E+00 -0.343941701079E+00
 -0.364473287173E+00 -0.386076334178E+00 -0.408785724517E+00 -0.432634355600E+00 -0.457652544573E+00
 -0.483867353735E+00 -0.511301830203E+00 -0.539974153527E+00 -0.569896685334E+00 -0.601074915592E+00
 -0.633506301025E+00 -0.667178992376E+00 -0.702070448917E+00 -0.738145940747E+00 -0.775356942196E+00
 -0.813639423056E+00 -0.852912048604E+00 -0.893074304399E+00 -0.934004567852E+00 -0.975558155521E+00
 -0.101756538311E+01 -0.105982968412E+01 -0.110212584320E+01 -0.114419841070E+01 -0.118576037680E+01
 -0.122649219449E+01 -0.126604125226E+01 -0.130402190732E+01 -0.134001619808E+01 -0.137357535957E+01
 -0.140422226523E+01 -0.143145491225E+01 -0.145475105222E+01 -0.147357404335E+01 -0.148737996104E+01
 -0.149562594966E+01 -0.149777972669E+01 -0.149333006084E+01 -0.148179793809E+01 -0.146274800677E+01
 -0.143579975919E+01 -0.140063777274E+01 -0.135702021194E+01 -0.130478470370E+01 -0.124385066960E+01
 -0.117421726367E+01 -0.109595626428E+01 -0.100919964853E+01 -0.914122183169E+00 -0.810920236842E+00
 -0.699789176503E+00 -0.580913194574E+00 -0.454680538394E+00 -0.321707567934E+00 -0.182621583612E+00
 -0.380398767217E-01  0.111441182842E+00  0.265256295348E+00  0.000000000000E+00  0.000000000000E+00
  0.000000000000E+00  0.000000000000E+00  0.000000000000E+00  0.000000000000E+00  0.000000000000E+00
  0.000000000000E+00  0.000000000000E+00  0.000000000000E+00  0.000000000000E+00  0.000000000000E+00
  0.000000000000E+00  0.000000000000E+00  0.000000000000E+00  0.000000000000E+00  0.000000000000E+00
  0.000000000000E+00  0.000000000000E+00  0.000000000000E+00  0.000000000000E+00  0.000000000000E+00
  0.000000000000E+00  0.000000000000E+00  0.000000000000E+00  0.000000000000E+00  0.000000000000E+00
  0.000000000000E+00  0.000000000000E+00  0.000000000000E+00  0.000000000000E+00  0.000000000000E+00
  0.000000000000E+00  0.000000000000E+00  0.000000000000E+00  0.000000000000E+00  0.000000000000E+00
 ae wavefunction
  0.228068065400E-04  0.241089933413E-04  0.254823001547E-04  0.269308019618E-04  0.284587995062E-04
  0.300708323898E-04  0.317716929122E-04  0.335664406970E-04  0.354604181534E-04  0.374592668196E-04
  0.395689446445E-04  0.417957442596E-04  0.441463123033E-04  0.466276698577E-04  0.492472340656E-04
  0.520128409958E-04  0.549327698379E-04  0.580157684875E-04  0.612710806371E-04  0.647084744215E-04
  0.683382727445E-04  0.721713853664E-04  0.762193428697E-04  0.804943325995E-04  0.850092367105E-04
  0.897776724401E-04  0.948140347343E-04  0.100133541373E-03  0.105752280737E-03  0.111687262381E-03
  0.117956470566E-03  0.124578920938E-03  0.131574720527E-03  0.138965131279E-03  0.146772637304E-03
  0.155021016086E-03  0.163735413868E-03  0.172942425465E-03  0.182670178767E-03  0.192948424198E-03
  0.203808629433E-03  0.215284079674E-03  0.227409983803E-03  0.240223586768E-03  0.253764288559E-03
  0.268073770143E-03  0.283196126790E-03  0.299178009188E-03  0.316068772810E-03  0.333920636013E-03
  0.352788847350E-03  0.372731862642E-03  0.393811532354E-03  0.416093299862E-03  0.439646411226E-03
  0.464544137120E-03  0.490864007596E-03  0.518688060400E-03  0.548103103593E-03  0.579200993262E-03
  0.612078927161E-03  0.646839755138E-03  0.683592307272E-03  0.722451740660E-03  0.763539905875E-03
  0.806985734110E-03  0.852925646134E-03  0.901503984174E-03  0.952873467923E-03  0.100719567592E-02
  0.106464155357E-02  0.112539194921E-02  0.118963817948E-02  0.125758262565E-02  0.132943936221E-02
  0.140543481937E-02  0.148580848109E-02  0.157081362022E-02  0.166071807253E-02  0.175580505135E-02
  0.185637400458E-02  0.196274151597E-02  0.207524225247E-02  0.219422995968E-02  0.232007850717E-02
  0.245318298571E-02  0.259396085850E-02  0.274285316806E-02  0.290032580108E-02  0.306687081299E-02
  0.324300781422E-02  0.342928542003E-02  0.362628276569E-02  0.383461108879E-02  0.405491538032E-02
  0.428787610591E-02  0.453421099874E-02  0.479467692517E-02  0.507007182405E-02  0.536123672052E-02
  0.566905781452E-02  0.599446864427E-02  0.633845232425E-02  0.670204385697E-02  0.708633251739E-02
  0.749246430785E-02  0.792164448144E-02  0.837514013030E-02  0.885428283514E-02  0.936047137078E-02
  0.989517446233E-02  0.104599335845E-01  0.110563657964E-01  0.116861666018E-01  0.123511128246E-01
  0.130530654859E-01  0.137939726692E-01  0.145758723571E-01  0.154008952211E-01  0.162712673432E-01
  0.171893128473E-01  0.181574564136E-01  0.191782256469E-01  0.202542532675E-01  0.213882790889E-01
  0.225831517428E-01  0.238418301095E-01  0.251673844051E-01  0.265629968742E-01  0.280319620327E-01
  0.295776863974E-01  0.312036876371E-01  0.329135930712E-01  0.347111374394E-01  0.366001598554E-01
  0.385845998561E-01  0.406684924462E-01  0.428559620361E-01  0.451512151582E-01  0.475585318464E-01
  0.500822555492E-01  0.527267814446E-01  0.554965430154E-01  0.583959967370E-01  0.614296047214E-01
  0.646018151576E-01  0.679170403783E-01  0.713796323810E-01  0.749938556237E-01  0.787638569142E-01
  0.826936322071E-01  0.867869901230E-01  0.910475120032E-01  0.954785083178E-01  0.100082971247E+00
  0.104863523266E+00  0.109822361568E+00  0.114961198184E+00  0.120281195662E+00  0.125782898204E+00
  0.131466158170E+00  0.137330057911E+00  0.143372826903E+00  0.149591754225E+00  0.155983096456E+00
  0.162541981140E+00  0.169262306014E+00  0.176136634296E+00  0.183156086390E+00  0.190310228481E+00
  0.197586958574E+00  0.204972390676E+00  0.212450737896E+00  0.220004195412E+00  0.227612824344E+00
  0.235254437716E+00  0.242904489819E+00  0.250535970383E+00  0.258119305100E+00  0.265622264156E+00
  0.273009880570E+00  0.280244380353E+00  0.287285126761E+00  0.294088581281E+00  0.300608284389E+00
  0.306794859598E+00  0.312596044678E+00  0.317956754198E+00  0.322819177704E+00  0.327122917751E+00
  0.330805171884E+00  0.333800962350E+00  0.336043416990E+00  0.337464104391E+00  0.337993426018E+00
  0.337561067746E+00  0.336096512904E+00  0.333529618692E+00  0.329791257348E+00  0.324814022947E+00
  0.318533003999E+00  0.310886621151E+00  0.301817528325E+00  0.291273574514E+00  0.279208822136E+00
  0.265584616488E+00  0.250370699233E+00  0.233546357172E+00  0.215101595736E+00  0.195038324699E+00
  0.173371541672E+00  0.150130496876E+00  0.125359820747E+00  0.991205939799E-01  0.714913378199E-01
  0.425689008161E-01  0.124692168497E-01 -0.186720917677E-01 -0.506992929198E-01 -0.834363317196E-01
 -0.116686851525E+00 -0.150234472052E+00 -0.183843343762E+00 -0.217258992831E+00 -0.250209466678E+00
 -0.282406788732E+00 -0.313548734886E+00 -0.343320953237E+00 -0.371399459412E+00 -0.397453544263E+00
 -0.421149116852E+00 -0.442152472384E+00 -0.460134433776E+00 -0.474774794799E+00 -0.485766998406E+00
 -0.492822999457E+00 -0.495678265622E+00 -0.494096860138E+00 -0.487876534633E+00 -0.476853748876E+00
 -0.460908530087E+00 -0.439969084532E+00 -0.414016074962E+00 -0.383086476770E+00 -0.347276923066E+00
 -0.306746445257E+00 -0.261718512241E+00 -0.212482269603E+00 -0.159392881795E+00 -0.102870886929E+00
 -0.434004867932E-01  0.184732860330E-01  0.821485590919E-01  0.146971783439E+00  0.212244072500E+00
  0.277228715915E+00  0.341159843745E+00  0.403252097175E+00  0.462710857683E+00  0.518742149193E+00
  0.570561202563E+00  0.617399586490E+00  0.658512922763E+00  0.693192493999E+00  0.720781366292E+00
  0.740690927322E+00  0.752413817542E+00  0.755533220675E+00  0.749730248326E+00  0.734790379473E+00
  0.710608931094E+00  0.677195101207E+00  0.634674110745E+00  0.583287185406E+00  0.523389374843E+00
  0.455445377428E+00  0.380023607854E+00  0.297788746309E+00  0.209492986863E+00  0.115966178631E+00
  0.181050404564E-01 -0.831383722179E-01 -0.186768761339E+00 -0.291760039051E+00 -0.397067925222E+00
 -0.501642472643E+00 -0.604440315923E+00 -0.704436448320E+00 -0.800635319870E+00 -0.892080947833E+00
 -0.977865570384E+00 -0.105713623074E+01 -0.112909885255E+01 -0.119302008615E+01 -0.124822829671E+01
 -0.129411569912E+01 -0.133014299370E+01 -0.135584618639E+01 -0.137084390086E+01 -0.137484340709E+01
 -0.136764442429E+01 -0.134914063715E+01 -0.131931924920E+01 -0.127825890836E+01 -0.122612621211E+01
 -0.116317091854E+01 -0.108971996353E+01 -0.100617040841E+01 -0.912981452127E+00 -0.810665648932E+00
 -0.699779454494E+00 -0.580913194574E+00 -0.454680538394E+00 -0.321707567934E+00 -0.182621583612E+00
 -0.380398767217E-01  0.111441182842E+00  0.265256295348E+00  0.000000000000E+00  0.000000000000E+00
  0.000000000000E+00  0.000000000000E+00  0.000000000000E+00  0.000000000000E+00  0.000000000000E+00
  0.000000000000E+00  0.000000000000E+00  0.000000000000E+00  0.000000000000E+00  0.000000000000E+00
  0.000000000000E+00  0.000000000000E+00  0.000000000000E+00  0.000000000000E+00  0.000000000000E+00
  0.000000000000E+00  0.000000000000E+00  0.000000000000E+00  0.000000000000E+00  0.000000000000E+00
  0.000000000000E+00  0.000000000000E+00  0.000000000000E+00  0.000000000000E+00  0.000000000000E+00
  0.000000000000E+00  0.000000000000E+00  0.000000000000E+00  0.000000000000E+00  0.000000000000E+00
  0.000000000000E+00  0.000000000000E+00  0.000000000000E+00  0.000000000000E+00  0.000000000000E+00
 pseudo wavefunction
  0.730261726400E-12  0.803842214172E-12  0.884836602977E-12  0.973991910535E-12  0.107213042337E-11
  0.118015728084E-11  0.129906882326E-11  0.142996178130E-11  0.157404339116E-11  0.173264252904E-11
  0.190722196744E-11  0.209939186647E-11  0.231092462443E-11  0.254377122484E-11  0.280007923047E-11
  0.308221259048E-11  0.339277344336E-11  0.373462611661E-11  0.411092354469E-11  0.452513634873E-11
  0.498108484643E-11  0.548297428708E-11  0.603543363693E-11  0.664355827251E-11  0.731295697569E-11
  0.804980366392E-11  0.886089433274E-11  0.975370973579E-11  0.107364843804E-10  0.118182824750E-10
  0.130090815292E-10  0.143198643771E-10  0.157627204725E-10  0.173509573913E-10  0.190992235682E-10
  0.210236434001E-10  0.231419659630E-10  0.254737287129E-10  0.280404376810E-10  0.308657658261E-10
  0.339757713716E-10  0.373991381425E-10  0.411674401188E-10  0.453154326443E-10  0.498813729781E-10
  0.549073731439E-10  0.604397883323E-10  0.665296444384E-10  0.732331086773E-10  0.806120076181E-10
  0.887343974152E-10  0.976751914952E-10  0.107516851488E-09  0.118350147778E-09  0.130274996684E-09
  0.143401381994E-09  0.157850369355E-09  0.173755222870E-09  0.191262634199E-09  0.210534075508E-09
  0.231747288740E-09  0.255097924934E-09  0.280801348731E-09  0.309094624698E-09  0.340238703784E-09
  0.374520830089E-09  0.412257190133E-09  0.453795829065E-09  0.499519860696E-09  0.549851000988E-09
  0.605253457554E-09  0.666238211075E-09  0.733367728096E-09  0.807261148684E-09  0.888599996783E-09
  0.978134465940E-09  0.107669033837E-08  0.118517660117E-08  0.130459382996E-08  0.143604341719E-08
  0.158073773035E-08  0.174001129364E-08  0.191533309631E-08  0.210832014123E-08  0.232075235845E-08
  0.255458902156E-08  0.281198681808E-08  0.309531974057E-08  0.340720098197E-08  0.375050703701E-08
  0.412840423214E-08  0.454437792839E-08  0.500226466686E-08  0.550628755289E-08  0.606109520564E-08
  0.667180463200E-08  0.734404842047E-08  0.808402669009E-08  0.889856427362E-08  0.979517366238E-08
  0.107821242931E-07  0.118685188161E-07  0.130643770477E-07  0.143807283815E-07  0.158297135111E-07
  0.174246964012E-07  0.191803875410E-07  0.211129796161E-07  0.232402968498E-07  0.255819593916E-07
  0.281595642686E-07  0.309968845682E-07  0.341200886901E-07  0.375579816884E-07  0.413422709297E-07
  0.455078585175E-07  0.500931631793E-07  0.551404745844E-07  0.606963433601E-07  0.668120104033E-07
  0.735438794448E-07  0.809540372259E-07  0.891108260826E-07  0.980894742172E-07  0.107972789470E-06
  0.118851922985E-06  0.130827209820E-06  0.144009094235E-06  0.158519148209E-06  0.174491192566E-06
  0.192072531043E-06  0.211425308689E-06  0.232728007111E-06  0.256177090347E-06  0.281988816556E-06
  0.310401232204E-06  0.341676367151E-06  0.376102650853E-06  0.413997571966E-06  0.455710605856E-06
  0.501626437007E-06  0.552168506018E-06  0.607802913876E-06  0.669042719500E-06  0.736452670136E-06
  0.810654408218E-06  0.892332202636E-06  0.982239257257E-06  0.108120465477E-05  0.119014099989E-05
  0.131005283220E-05  0.144204588631E-05  0.158733728441E-05  0.174726675521E-05  0.192330898253E-05
  0.211708719726E-05  0.233038813771E-05  0.256517851622E-05  0.282362314342E-05  0.310810487702E-05
  0.342124657865E-05  0.376593528067E-05  0.414534878539E-05  0.456298494106E-05  0.502269386404E-05
  0.552871340320E-05  0.608570817249E-05  0.669881251035E-05  0.737367776059E-05  0.811652430877E-05
  0.893419885209E-05  0.983423742805E-05  0.108249347805E-04  0.119154206990E-04  0.131157440315E-04
  0.144369651402E-04  0.158912576478E-04  0.174920204053E-04  0.192540007064E-04  0.211934298760E-04
  0.233281724711E-04  0.256778904589E-04  0.282642238703E-04  0.311109895772E-04  0.342444000073E-04
  0.376933037878E-04  0.414894505098E-04  0.456677820220E-04  0.502667529001E-04  0.553286830029E-04
  0.609001453110E-04  0.670323925630E-04  0.737818265494E-04  0.812105143046E-04  0.893867558563E-04
  0.983857086476E-04  0.108290074251E-03  0.119190853543E-03  0.131188177105E-03  0.144392218296E-03
  0.158924197131E-03  0.174917483929E-03  0.192518812539E-03  0.211889613895E-03  0.233207481700E-03
  0.256667783181E-03  0.282485429043E-03  0.310896818175E-03  0.342161974056E-03  0.376566891477E-03
  0.414426113888E-03  0.456085563627E-03  0.501925649334E-03  0.552364677085E-03  0.607862594263E-03
  0.668925097788E-03  0.736108141213E-03  0.810022878285E-03  0.891341083923E-03  0.980801097158E-03
  0.107921433448E-02  0.118747242621E-02  0.130655503298E-02  0.143753840415E-02  0.158160474523E-02
  0.174005246665E-02  0.191430739201E-02  0.210593501012E-02  0.231665386144E-02  0.254835015622E-02
  0.280309372864E-02  0.308315543838E-02  0.339102613848E-02  0.372943733582E-02  0.410138367795E-02
  0.451014740750E-02  0.495932493248E-02  0.545285566769E-02  0.599505330828E-02  0.659063970199E-02
  0.724478149050E-02  0.796312969261E-02  0.875186240255E-02  0.961773077429E-02  0.105681084572E-01
  0.116110446394E-01  0.127553208394E-01  0.140105115697E-01  0.153870489633E-01  0.168962914249E-01
  0.185505963181E-01  0.203633966434E-01  0.223492815947E-01  0.245240807883E-01  0.269049518601E-01
  0.295104709948E-01  0.323607258037E-01  0.354774097876E-01  0.388839174144E-01  0.426054385953E-01
  0.466690510632E-01  0.511038088342E-01  0.559408245617E-01  0.612133431769E-01  0.669568037393E-01
  0.732088858993E-01  0.800095367998E-01  0.874009736163E-01  0.954276562642E-01  0.104136224085E+00
  0.113575389585E+00  0.123795781559E+00  0.134849729176E+00  0.146790977949E+00  0.159674327893E+00
  0.173555183748E+00  0.188489006906E+00  0.204530658777E+00  0.221733625788E+00  0.240149117260E+00
  0.259825029082E+00  0.280804768636E+00  0.303125939990E+00  0.326818893129E+00  0.351905147193E+00
  0.378395705441E+00  0.406289289250E+00  0.435570529844E+00  0.466208169811E+00  0.498153341577E+00
  0.531338006606E+00  0.565673656633E+00  0.601050395739E+00  0.637336538164E+00  0.674378869562E+00
  0.712003726124E+00  0.750019043464E+00  0.788217510892E+00  0.826380931813E+00  0.864285831398E+00
  0.901710262233E+00  0.938441630709E+00  0.974285195977E+00  0.100907267533E+01  0.104267012484E+01
  0.107498395717E+01  0.110596362388E+01  0.113559915289E+01  0.116391143453E+01  0.119093295174E+01
  0.121667663426E+01  0.124109078766E+01  0.126399873097E+01  0.128502300947E+01  0.130366823302E+01
  0.131989539402E+01  0.133382041112E+01  0.134557238897E+01  0.000000000000E+00  0.000000000000E+00
  0.000000000000E+00  0.000000000000E+00  0.000000000000E+00  0.000000000000E+00  0.000000000000E+00
  0.000000000000E+00  0.000000000000E+00  0.000000000000E+00  0.000000000000E+00  0.000000000000E+00
  0.000000000000E+00  0.000000000000E+00  0.000000000000E+00  0.000000000000E+00  0.000000000000E+00
  0.000000000000E+00  0.000000000000E+00  0.000000000000E+00  0.000000000000E+00  0.000000000000E+00
  0.000000000000E+00  0.000000000000E+00  0.000000000000E+00  0.000000000000E+00  0.000000000000E+00
  0.000000000000E+00  0.000000000000E+00  0.000000000000E+00  0.000000000000E+00  0.000000000000E+00
  0.000000000000E+00  0.000000000000E+00  0.000000000000E+00  0.000000000000E+00  0.000000000000E+00
 ae wavefunction
  0.548509868514E-08  0.598591610567E-08  0.652937704377E-08  0.711936883794E-08  0.776011460163E-08
  0.845620395443E-08  0.921262645698E-08  0.100348079988E-07  0.109286504113E-07  0.119005746042E-07
  0.129575675483E-07  0.141072334592E-07  0.153578495686E-07  0.167184269024E-07  0.181987765291E-07
  0.198095817766E-07  0.215624769730E-07  0.234701332959E-07  0.255463524108E-07  0.278061685810E-07
  0.302659600581E-07  0.329435705893E-07  0.358584419874E-07  0.390317587680E-07  0.424866059810E-07
  0.462481414518E-07  0.503437837574E-07  0.548034173989E-07  0.596596167602E-07  0.649478905916E-07
  0.707069489264E-07  0.769789944974E-07  0.838100409469E-07  0.912502603027E-07  0.993543624531E-07
  0.108182009588E-06  0.117798268871E-06  0.128274106895E-06  0.139686929836E-06  0.152121173538E-06
  0.165668948227E-06  0.180430742936E-06  0.196516195231E-06  0.214044932346E-06  0.233147490419E-06
  0.253966319136E-06  0.276656879798E-06  0.301388845561E-06  0.328347413446E-06  0.357734738609E-06
  0.389771502342E-06  0.424698626388E-06  0.462779147299E-06  0.504300265903E-06  0.549575588328E-06
  0.598947576623E-06  0.652790228672E-06  0.711512008989E-06  0.775559054006E-06  0.845418677676E-06
  0.921623205659E-06  0.100475416902E-05  0.109544689127E-05  0.119439550574E-05  0.130235844379E-05
  0.142016443815E-05  0.154871908979E-05  0.168901205136E-05  0.184212488499E-05  0.200923965796E-05
  0.219164834537E-05  0.239076311562E-05  0.260812758133E-05  0.284542910632E-05  0.310451226737E-05
  0.338739357892E-05  0.369627759857E-05  0.403357454248E-05  0.440191955143E-05  0.480419376127E-05
  0.524354734581E-05  0.572342471532E-05  0.624759207087E-05  0.682016753282E-05  0.744565408160E-05
  0.812897557074E-05  0.887551609560E-05  0.969116302669E-05  0.105823540444E-04  0.115561285423E-04
  0.126201837989E-04  0.137829363532E-04  0.150535890589E-04  0.164422043324E-04  0.179597841578E-04
  0.196183574587E-04  0.214310755024E-04  0.234123160575E-04  0.255777970916E-04  0.279447008606E-04
  0.305318093144E-04  0.333596518269E-04  0.364506663357E-04  0.398293750774E-04  0.435225761960E-04
  0.475595526133E-04  0.519722996633E-04  0.567957731132E-04  0.620681593314E-04  0.678311694982E-04
  0.741303599126E-04  0.810154806049E-04  0.885408546463E-04  0.967657907230E-04  0.105755031748E-03
  0.115579242487E-03  0.126315539407E-03  0.138048066177E-03  0.150868618524E-03  0.164877322395E-03
  0.180183369650E-03  0.196905815833E-03  0.215174444843E-03  0.235130705673E-03  0.256928726702E-03
  0.280736413403E-03  0.306736635652E-03  0.335128511234E-03  0.366128792505E-03  0.399973363555E-03
  0.436918855639E-03  0.477244388998E-03  0.521253449646E-03  0.569275910036E-03  0.621670202938E-03
  0.678825658221E-03  0.741165012563E-03  0.809147102450E-03  0.883269751081E-03  0.964072860044E-03
  0.105214171677E-02  0.114811052892E-02  0.125266619675E-02  0.136655233463E-02  0.149057355232E-02
  0.162560000668E-02  0.177257223353E-02  0.193250626895E-02  0.210649906837E-02  0.229573423026E-02
  0.250148803036E-02  0.272513576994E-02  0.296815843998E-02  0.323214970026E-02  0.351882316960E-02
  0.383002001968E-02  0.416771686133E-02  0.453403390705E-02  0.493124338850E-02  0.536177820178E-02
  0.582824074632E-02  0.633341191574E-02  0.688026019066E-02  0.747195077376E-02  0.811185469713E-02
  0.880355782062E-02  0.955086962693E-02  0.103578317060E-01  0.112287258060E-01  0.121680813133E-01
  0.131806820043E-01  0.142715718976E-01  0.154460600116E-01  0.167097238142E-01  0.180684111273E-01
  0.195282402266E-01  0.210955978459E-01  0.227771347697E-01  0.245797586609E-01  0.265106237339E-01
  0.285771168473E-01  0.307868395487E-01  0.331475855784E-01  0.356673133134E-01  0.383541126345E-01
  0.412161657083E-01  0.442617012047E-01  0.474989415007E-01  0.509360424537E-01  0.545810253517E-01
  0.584417006645E-01  0.625255832295E-01  0.668397985125E-01  0.713909795900E-01  0.761851545167E-01
  0.812276237861E-01  0.865228276662E-01  0.920742033048E-01  0.978840316348E-01  0.103953274274E+00
  0.110281400788E+00  0.116866206888E+00  0.123703624361E+00  0.130787523772E+00  0.138109511266E+00
  0.145658721084E+00  0.153421605746E+00  0.161381726164E+00  0.169519544333E+00  0.177812221573E+00
  0.186233425660E+00  0.194753150539E+00  0.203337552615E+00  0.211948807950E+00  0.220544994930E+00
  0.229080007221E+00  0.237503501939E+00  0.245760888000E+00  0.253793359396E+00  0.261537977615E+00
  0.268927806376E+00  0.275892100409E+00  0.282356548306E+00  0.288243568369E+00  0.293472656944E+00
  0.297960792078E+00  0.301622901505E+00  0.304372411642E+00  0.306121899666E+00  0.306783869355E+00
  0.306271657639E+00  0.304500457402E+00  0.301388423215E+00  0.296857826323E+00  0.290836239610E+00
  0.283257748048E+00  0.274064183819E+00  0.263206379715E+00  0.250645427041E+00  0.236353920225E+00
  0.220317170121E+00  0.202534369255E+00  0.183019693001E+00  0.161803319876E+00  0.138932351970E+00
  0.114471613545E+00  0.885043027958E-01  0.611324692225E-01  0.324772877707E-01  0.267910149910E-02
 -0.281027926170E-01 -0.596906352832E-01 -0.918889891619E-01 -0.124485828417E+00 -0.157253949014E+00
 -0.189952721536E+00 -0.222330200392E+00 -0.254125539385E+00 -0.285071495926E+00 -0.314896568536E+00
 -0.343326257240E+00 -0.370083467057E+00 -0.394889279934E+00 -0.417466059450E+00 -0.437543323755E+00
 -0.454864107840E+00 -0.469189564364E+00 -0.480301850749E+00 -0.488006380658E+00 -0.492134073639E+00
 -0.492543657858E+00 -0.489123802969E+00 -0.481794816067E+00 -0.470509726612E+00 -0.455254716771E+00
 -0.436048946068E+00 -0.412943857924E+00 -0.386022054990E+00 -0.355395815226E+00 -0.321205301511E+00
 -0.283616503894E+00 -0.242818945083E+00 -0.199023177359E+00 -0.152458104397E+00 -0.103368168053E+00
 -0.520104484524E-01  0.134827168501E-02  0.564344307226E-01  0.112970549107E+00  0.170677952191E+00
  0.229279205359E+00  0.288500008096E+00  0.348070248886E+00  0.407724090363E+00  0.467199389766E+00
  0.526237225973E+00  0.584582365602E+00  0.641984998862E+00  0.698203398201E+00  0.753006844535E+00
  0.806178310319E+00  0.857516715063E+00  0.906838778925E+00  0.953980557417E+00  0.998798705835E+00
  0.104117148663E+01  0.108099951617E+01  0.111820626163E+01  0.115273830957E+01  0.118456544308E+01
  0.121368055864E+01  0.124009942665E+01  0.126386026067E+01  0.128502300947E+01  0.130366823302E+01
  0.131989539402E+01  0.133382041112E+01  0.134557238897E+01  0.000000000000E+00  0.000000000000E+00
  0.000000000000E+00  0.000000000000E+00  0.000000000000E+00  0.000000000000E+00  0.000000000000E+00
  0.000000000000E+00  0.000000000000E+00  0.000000000000E+00  0.000000000000E+00  0.000000000000E+00
  0.000000000000E+00  0.000000000000E+00  0.000000000000E+00  0.000000000000E+00  0.000000000000E+00
  0.000000000000E+00  0.000000000000E+00  0.000000000000E+00  0.000000000000E+00  0.000000000000E+00
  0.000000000000E+00  0.000000000000E+00  0.000000000000E+00  0.000000000000E+00  0.000000000000E+00
  0.000000000000E+00  0.000000000000E+00  0.000000000000E+00  0.000000000000E+00  0.000000000000E+00
  0.000000000000E+00  0.000000000000E+00  0.000000000000E+00  0.000000000000E+00  0.000000000000E+00
 End of Dataset
  PAW_PBE Pb 08Apr2002                   
   4.00000000000000     
 parameters from PSCTR are:
   SHA256 =  797118a27cf1bcd06b9881c67a26cdde129e3cd1a551dd4a281f9681ce847303 Pb/POTCAR
   COPYR  = (c) Copyright 08Apr2002 Georg Kresse
   COPYR  = This file is part of the software VASP. Any use, copying, and all other rights are regulated by the VASP license agreement.
   COPYR  = If you do not have a valid VASP license, you may not use, copy or distribute this file.
   VRHFIN =Pb:
   LEXCH  = PE
   EATOM  =    96.9868 eV,    7.1283 Ry

   TITEL  = PAW_PBE Pb 08Apr2002
   LULTRA =        F    use ultrasoft PP ?
   IUNSCR =        1    unscreen: 0-lin 1-nonlin 2-no
   RPACOR =    2.200    partial core radius
   POMASS =  207.200; ZVAL   =    4.000    mass and valenz
   RCORE  =    3.100    outmost cutoff radius
   RWIGS  =    3.260; RWIGS  =    1.725    wigner-seitz radius (au A)
   ENMAX  =   97.973; ENMIN  =   73.480 eV
   ICORE  =        3    local potential
   LCOR   =        T    correct aug charges
   LPAW   =        T    paw PP
   EAUG   =  234.873
   DEXC   =    0.000
   RMAX   =    3.158    core radius for proj-oper
   RAUG   =    1.300    factor for augmentation sphere
   RDEP   =    3.202    radius for radial grids
   RDEPT  =    2.659    core radius for aug-charge
 
   Atomic configuration
   17 entries
     n  l   j            E        occ.
     1  0  0.50    -88091.8466   2.0000
     2  0  0.50    -15753.4197   2.0000
     2  1  1.50    -13508.1797   6.0000
     3  0  0.50     -3781.7194   2.0000
     3  1  1.50     -3138.2529   6.0000
     3  2  2.50     -2483.2977  10.0000
     4  0  0.50      -856.2895   2.0000
     4  1  1.50      -645.4943   6.0000
     4  2  2.50      -401.8768  10.0000
     4  3  3.50      -132.9059  14.0000
     5  0  0.50      -144.0950   2.0000
     5  1  1.50       -85.7879   6.0000
     5  2  2.50       -21.1769  10.0000
     6  0  0.50       -12.0372   2.0000
     6  1  1.50        -3.4971   2.0000
     6  2  2.50        -1.3606   0.0000
     5  3  2.50        -2.7212   0.0000
   Description
     l       E           TYP  RCUT    TYP  RCUT
     0    -12.0371566     23  3.100
     0    -13.3977392     23  3.100
     1     -3.4971341     23  3.100
     1     -5.4423304     23  3.100
     2     -1.3605826     23  3.100
     3     -1.3605826     23  3.100
   Error from kinetic energy argument (eV)
   NDATA  =      100
   STEP   =   20.000   1.050
  7.83      6.80      6.32      5.45      5.05      4.33      3.69      3.40
  2.88      2.43      2.23      1.87      1.56      1.30      1.07     0.887
 0.730     0.598     0.488     0.357     0.289     0.233     0.167     0.134
 0.106     0.751E-01 0.526E-01 0.414E-01 0.288E-01 0.200E-01 0.139E-01 0.979E-02
 0.700E-02 0.512E-02 0.388E-02 0.305E-02 0.235E-02 0.201E-02 0.170E-02 0.153E-02
 0.133E-02 0.116E-02 0.101E-02 0.866E-03 0.736E-03 0.621E-03 0.523E-03 0.423E-03
 0.361E-03 0.303E-03 0.262E-03 0.238E-03 0.213E-03 0.192E-03 0.169E-03 0.149E-03
 0.130E-03 0.110E-03 0.932E-04 0.807E-04 0.717E-04 0.650E-04 0.591E-04 0.523E-04
 0.463E-04 0.397E-04 0.342E-04 0.300E-04 0.267E-04 0.244E-04 0.217E-04 0.189E-04
 0.163E-04 0.143E-04 0.127E-04 0.116E-04 0.104E-04 0.905E-05 0.774E-05 0.689E-05
 0.622E-05 0.559E-05 0.490E-05 0.421E-05 0.374E-05 0.339E-05 0.301E-05 0.260E-05
 0.229E-05 0.207E-05 0.183E-05 0.160E-05 0.140E-05 0.127E-05 0.112E-05 0.973E-06
 0.870E-06 0.782E-06 0.673E-06 0.602E-06
END of PSCTR-controll parameters
 local part
   60.4712316345255     
  0.22797447E+02  0.22810989E+02  0.22871879E+02  0.22973176E+02  0.23114594E+02
  0.23295733E+02  0.23516071E+02  0.23774959E+02  0.24071624E+02  0.24405165E+02
  0.24774552E+02  0.25178634E+02  0.25616136E+02  0.26085673E+02  0.26585753E+02
  0.27114787E+02  0.27671093E+02  0.28252913E+02  0.28858410E+02  0.29485684E+02
  0.30132774E+02  0.30797662E+02  0.31478284E+02  0.32172528E+02  0.32878246E+02
  0.33593257E+02  0.34315351E+02  0.35042301E+02  0.35771863E+02  0.36501790E+02
  0.37229835E+02  0.37953760E+02  0.38671339E+02  0.39380372E+02  0.40078683E+02
  0.40764134E+02  0.41434624E+02  0.42088097E+02  0.42722549E+02  0.43336032E+02
  0.43926658E+02  0.44492610E+02  0.45032139E+02  0.45543577E+02  0.46025337E+02
  0.46475917E+02  0.46893909E+02  0.47278000E+02  0.47626972E+02  0.47939711E+02
  0.48215206E+02  0.48452553E+02  0.48650958E+02  0.48809736E+02  0.48928317E+02
  0.49006242E+02  0.49043173E+02  0.49038883E+02  0.48993266E+02  0.48906330E+02
  0.48778201E+02  0.48609122E+02  0.48399446E+02  0.48149644E+02  0.47860294E+02
  0.47532084E+02  0.47165809E+02  0.46762365E+02  0.46322749E+02  0.45848056E+02
  0.45339471E+02  0.44798269E+02  0.44225807E+02  0.43623522E+02  0.42992925E+02
  0.42335592E+02  0.41653164E+02  0.40947338E+02  0.40219858E+02  0.39472515E+02
  0.38707136E+02  0.37925578E+02  0.37129724E+02  0.36321473E+02  0.35502736E+02
  0.34675426E+02  0.33841455E+02  0.33002724E+02  0.32161117E+02  0.31318498E+02
  0.30476697E+02  0.29637510E+02  0.28802693E+02  0.27973950E+02  0.27152934E+02
  0.26341240E+02  0.25540396E+02  0.24751865E+02  0.23977034E+02  0.23217214E+02
  0.22473634E+02  0.21747440E+02  0.21039689E+02  0.20351349E+02  0.19683295E+02
  0.19036309E+02  0.18411077E+02  0.17808190E+02  0.17228144E+02  0.16671336E+02
  0.16138071E+02  0.15628556E+02  0.15142907E+02  0.14681147E+02  0.14243212E+02
  0.13828947E+02  0.13438116E+02  0.13070400E+02  0.12725406E+02  0.12402663E+02
  0.12101635E+02  0.11821718E+02  0.11562249E+02  0.11322509E+02  0.11101729E+02
  0.10899095E+02  0.10713752E+02  0.10544810E+02  0.10391349E+02  0.10252426E+02
  0.10127078E+02  0.10014329E+02  0.99131949E+01  0.98226888E+01  0.97418255E+01
  0.96696270E+01  0.96051274E+01  0.95473769E+01  0.94954464E+01  0.94484319E+01
  0.94054579E+01  0.93656812E+01  0.93282943E+01  0.92925282E+01  0.92576556E+01
  0.92229927E+01  0.91879019E+01  0.91517933E+01  0.91141259E+01  0.90744092E+01
  0.90322036E+01  0.89871209E+01  0.89388244E+01  0.88870288E+01  0.88314996E+01
  0.87720524E+01  0.87085517E+01  0.86409096E+01  0.85690847E+01  0.84930796E+01
  0.84129393E+01  0.83287488E+01  0.82406308E+01  0.81487432E+01  0.80532760E+01
  0.79544488E+01  0.78525078E+01  0.77477227E+01  0.76403838E+01  0.75307990E+01
  0.74192904E+01  0.73061916E+01  0.71918446E+01  0.70765967E+01  0.69607976E+01
  0.68447967E+01  0.67289402E+01  0.66135687E+01  0.64990142E+01  0.63855987E+01
  0.62736310E+01  0.61634055E+01  0.60552000E+01  0.59492743E+01  0.58458684E+01
  0.57452019E+01  0.56474723E+01  0.55528547E+01  0.54615005E+01  0.53735378E+01
  0.52890703E+01  0.52081777E+01  0.51309159E+01  0.50573170E+01  0.49873898E+01
  0.49211208E+01  0.48584747E+01  0.47993953E+01  0.47438069E+01  0.46916151E+01
  0.46427084E+01  0.45969592E+01  0.45542258E+01  0.45143532E+01  0.44771753E+01
  0.44425164E+01  0.44101923E+01  0.43800128E+01  0.43517826E+01  0.43253036E+01
  0.43003759E+01  0.42767998E+01  0.42543771E+01  0.42329128E+01  0.42122160E+01
  0.41921017E+01  0.41723919E+01  0.41529162E+01  0.41335137E+01  0.41140332E+01
  0.40943344E+01  0.40742884E+01  0.40537785E+01  0.40327004E+01  0.40109628E+01
  0.39884874E+01  0.39652093E+01  0.39410766E+01  0.39160508E+01  0.38901060E+01
  0.38632290E+01  0.38354188E+01  0.38066862E+01  0.37770529E+01  0.37465512E+01
  0.37152233E+01  0.36831203E+01  0.36503016E+01  0.36168337E+01  0.35827899E+01
  0.35482488E+01  0.35132934E+01  0.34780105E+01  0.34424897E+01  0.34068220E+01
  0.33710994E+01  0.33354138E+01  0.32998561E+01  0.32645156E+01  0.32294789E+01
  0.31948294E+01  0.31606464E+01  0.31270047E+01  0.30939740E+01  0.30616181E+01
  0.30299948E+01  0.29991555E+01  0.29691446E+01  0.29399997E+01  0.29117513E+01
  0.28844224E+01  0.28580292E+01  0.28325804E+01  0.28080778E+01  0.27845164E+01
  0.27618844E+01  0.27401636E+01  0.27193302E+01  0.26993542E+01  0.26802009E+01
  0.26618305E+01  0.26441993E+01  0.26272597E+01  0.26109610E+01  0.25952501E+01
  0.25800715E+01  0.25653686E+01  0.25510837E+01  0.25371589E+01  0.25235365E+01
  0.25101593E+01  0.24969716E+01  0.24839193E+01  0.24709505E+01  0.24580161E+01
  0.24450696E+01  0.24320682E+01  0.24189727E+01  0.24057478E+01  0.23923621E+01
  0.23787890E+01  0.23650059E+01  0.23509950E+01  0.23367428E+01  0.23222405E+01
  0.23074838E+01  0.22924728E+01  0.22772117E+01  0.22617092E+01  0.22459774E+01
  0.22300326E+01  0.22138941E+01  0.21975844E+01  0.21811290E+01  0.21645555E+01
  0.21478938E+01  0.21311755E+01  0.21144334E+01  0.20977014E+01  0.20810139E+01
  0.20644056E+01  0.20479110E+01  0.20315641E+01  0.20153981E+01  0.19994448E+01
  0.19837348E+01  0.19682966E+01  0.19531568E+01  0.19383396E+01  0.19238666E+01
  0.19097570E+01  0.18960266E+01  0.18826886E+01  0.18697531E+01  0.18572268E+01
  0.18451136E+01  0.18334138E+01  0.18221250E+01  0.18112415E+01  0.18007547E+01
  0.17906530E+01  0.17809223E+01  0.17715458E+01  0.17625045E+01  0.17537772E+01
  0.17453408E+01  0.17371704E+01  0.17292402E+01  0.17215227E+01  0.17139900E+01
  0.17066134E+01  0.16993641E+01  0.16922131E+01  0.16851317E+01  0.16780917E+01
  0.16710659E+01  0.16640279E+01  0.16569525E+01  0.16498163E+01  0.16425973E+01
  0.16352755E+01  0.16278328E+01  0.16202536E+01  0.16125242E+01  0.16046334E+01
  0.15965726E+01  0.15883353E+01  0.15799178E+01  0.15713189E+01  0.15625396E+01
  0.15535835E+01  0.15444567E+01  0.15351671E+01  0.15257251E+01  0.15161431E+01
  0.15064351E+01  0.14966169E+01  0.14867060E+01  0.14767208E+01  0.14666811E+01
  0.14566074E+01  0.14465211E+01  0.14364438E+01  0.14263976E+01  0.14164043E+01
  0.14064858E+01  0.13966636E+01  0.13869583E+01  0.13773900E+01  0.13679778E+01
  0.13587395E+01  0.13496915E+01  0.13408490E+01  0.13322254E+01  0.13238324E+01
  0.13156800E+01  0.13077763E+01  0.13001275E+01  0.12927376E+01  0.12856089E+01
  0.12787417E+01  0.12721341E+01  0.12657826E+01  0.12596816E+01  0.12538237E+01
  0.12481998E+01  0.12427993E+01  0.12376099E+01  0.12326183E+01  0.12278095E+01
  0.12231679E+01  0.12186766E+01  0.12143183E+01  0.12100749E+01  0.12059281E+01
  0.12018591E+01  0.11978494E+01  0.11938802E+01  0.11899335E+01  0.11859913E+01
  0.11820363E+01  0.11780523E+01  0.11740236E+01  0.11699358E+01  0.11657755E+01
  0.11615307E+01  0.11571906E+01  0.11527460E+01  0.11481890E+01  0.11435135E+01
  0.11387148E+01  0.11337898E+01  0.11287369E+01  0.11235564E+01  0.11182498E+01
  0.11128204E+01  0.11072728E+01  0.11016130E+01  0.10958484E+01  0.10899877E+01
  0.10840404E+01  0.10780174E+01  0.10719302E+01  0.10657912E+01  0.10596133E+01
  0.10534100E+01  0.10471951E+01  0.10409827E+01  0.10347869E+01  0.10286217E+01
  0.10225010E+01  0.10164384E+01  0.10104468E+01  0.10045387E+01  0.99872603E+00
  0.99301963E+00  0.98742960E+00  0.98196501E+00  0.97663386E+00  0.97144306E+00
  0.96639829E+00  0.96150405E+00  0.95676358E+00  0.95217887E+00  0.94775063E+00
  0.94347831E+00  0.93936012E+00  0.93539305E+00  0.93157294E+00  0.92789450E+00
  0.92435139E+00  0.92093630E+00  0.91764105E+00  0.91445663E+00  0.91137336E+00
  0.90838095E+00  0.90546862E+00  0.90262520E+00  0.89983925E+00  0.89709917E+00
  0.89439330E+00  0.89171005E+00  0.88903800E+00  0.88636601E+00  0.88368335E+00
  0.88097974E+00  0.87824551E+00  0.87547166E+00  0.87264992E+00  0.86977285E+00
  0.86683389E+00  0.86382738E+00  0.86074864E+00  0.85759400E+00  0.85436078E+00
  0.85104737E+00  0.84765316E+00  0.84417860E+00  0.84062513E+00  0.83699520E+00
  0.83329220E+00  0.82952042E+00  0.82568501E+00  0.82179188E+00  0.81784769E+00
  0.81385971E+00  0.80983577E+00  0.80578417E+00  0.80171361E+00  0.79763305E+00
  0.79355170E+00  0.78947883E+00  0.78542377E+00  0.78139573E+00  0.77740379E+00
  0.77345673E+00  0.76956301E+00  0.76573063E+00  0.76196710E+00  0.75827935E+00
  0.75467364E+00  0.75115555E+00  0.74772991E+00  0.74440075E+00  0.74117128E+00
  0.73804388E+00  0.73502003E+00  0.73210037E+00  0.72928465E+00  0.72657174E+00
  0.72395966E+00  0.72144562E+00  0.71902600E+00  0.71669647E+00  0.71445196E+00
  0.71228676E+00  0.71019457E+00  0.70816859E+00  0.70620155E+00  0.70428580E+00
  0.70241339E+00  0.70057616E+00  0.69876579E+00  0.69697389E+00  0.69519208E+00
  0.69341211E+00  0.69162587E+00  0.68982551E+00  0.68800353E+00  0.68615281E+00
  0.68426671E+00  0.68233910E+00  0.68036444E+00  0.67833784E+00  0.67625504E+00
  0.67411251E+00  0.67190743E+00  0.66963776E+00  0.66730220E+00  0.66490024E+00
  0.66243213E+00  0.65989890E+00  0.65730234E+00  0.65464494E+00  0.65192992E+00
  0.64916114E+00  0.64634309E+00  0.64348083E+00  0.64057993E+00  0.63764642E+00
  0.63468671E+00  0.63170756E+00  0.62871599E+00  0.62571919E+00  0.62272452E+00
  0.61973935E+00  0.61677107E+00  0.61382697E+00  0.61091417E+00  0.60803958E+00
  0.60520980E+00  0.60243107E+00  0.59970923E+00  0.59704965E+00  0.59445717E+00
  0.59193609E+00  0.58949009E+00  0.58712225E+00  0.58483498E+00  0.58263004E+00
  0.58050850E+00  0.57847072E+00  0.57651639E+00  0.57464451E+00  0.57285341E+00
  0.57114074E+00  0.56950356E+00  0.56793830E+00  0.56644087E+00  0.56500662E+00
  0.56363049E+00  0.56230695E+00  0.56103014E+00  0.55979389E+00  0.55859178E+00
  0.55741721E+00  0.55626342E+00  0.55512365E+00  0.55399108E+00  0.55285899E+00
  0.55172077E+00  0.55057002E+00  0.54940057E+00  0.54820656E+00  0.54698250E+00
  0.54572329E+00  0.54442428E+00  0.54308131E+00  0.54169074E+00  0.54024947E+00
  0.53875499E+00  0.53720537E+00  0.53559928E+00  0.53393601E+00  0.53221546E+00
  0.53043815E+00  0.52860520E+00  0.52671832E+00  0.52477977E+00  0.52279236E+00
  0.52075941E+00  0.51868470E+00  0.51657244E+00  0.51442722E+00  0.51225397E+00
  0.51005791E+00  0.50784452E+00  0.50561943E+00  0.50338843E+00  0.50115739E+00
  0.49893217E+00  0.49671864E+00  0.49452255E+00  0.49234951E+00  0.49020494E+00
  0.48809400E+00  0.48602157E+00  0.48399218E+00  0.48201000E+00  0.48007877E+00
  0.47820182E+00  0.47638196E+00  0.47462158E+00  0.47292249E+00  0.47128603E+00
  0.46971299E+00  0.46820362E+00  0.46675763E+00  0.46537423E+00  0.46405209E+00
  0.46278939E+00  0.46158383E+00  0.46043267E+00  0.45933276E+00  0.45828054E+00
  0.45727214E+00  0.45630334E+00  0.45536968E+00  0.45446648E+00  0.45358885E+00
  0.45273181E+00  0.45189026E+00  0.45105908E+00  0.45023316E+00  0.44940745E+00
  0.44857701E+00  0.44773705E+00  0.44688300E+00  0.44601051E+00  0.44511551E+00
  0.44419424E+00  0.44324330E+00  0.44225963E+00  0.44124059E+00  0.44018394E+00
  0.43908789E+00  0.43795107E+00  0.43677259E+00  0.43555200E+00  0.43428932E+00
  0.43298503E+00  0.43164004E+00  0.43025570E+00  0.42883376E+00  0.42737639E+00
  0.42588608E+00  0.42436570E+00  0.42281839E+00  0.42124758E+00  0.41965695E+00
  0.41805035E+00  0.41643182E+00  0.41480551E+00  0.41317566E+00  0.41154654E+00
  0.40992244E+00  0.40830757E+00  0.40670608E+00  0.40512199E+00  0.40355916E+00
  0.40202124E+00  0.40051166E+00  0.39903359E+00  0.39758991E+00  0.39618317E+00
  0.39481562E+00  0.39348914E+00  0.39220523E+00  0.39096504E+00  0.38976931E+00
  0.38861840E+00  0.38751225E+00  0.38645046E+00  0.38543220E+00  0.38445630E+00
  0.38352122E+00  0.38262510E+00  0.38176577E+00  0.38094074E+00  0.38014730E+00
  0.37938247E+00  0.37864308E+00  0.37792578E+00  0.37722709E+00  0.37654342E+00
  0.37587108E+00  0.37520638E+00  0.37454563E+00  0.37388515E+00  0.37322137E+00
  0.37255079E+00  0.37187008E+00  0.37117608E+00  0.37046581E+00  0.36973652E+00
  0.36898573E+00  0.36821119E+00  0.36741098E+00  0.36658345E+00  0.36572729E+00
  0.36484152E+00  0.36392547E+00  0.36297883E+00  0.36200164E+00  0.36099426E+00
  0.35995738E+00  0.35889202E+00  0.35779949E+00  0.35668140E+00  0.35553964E+00
  0.35437633E+00  0.35319382E+00  0.35199468E+00  0.35078164E+00  0.34955758E+00
  0.34832553E+00  0.34708858E+00  0.34584988E+00  0.34461263E+00  0.34338001E+00
  0.34215518E+00  0.34094122E+00  0.33974110E+00  0.33855770E+00  0.33739374E+00
  0.33625173E+00  0.33513403E+00  0.33404276E+00  0.33297980E+00  0.33194678E+00
  0.33094507E+00  0.32997575E+00  0.32903963E+00  0.32813719E+00  0.32726866E+00
  0.32643392E+00  0.32563260E+00  0.32486401E+00  0.32412719E+00  0.32342093E+00
  0.32274374E+00  0.32209391E+00  0.32146951E+00  0.32086841E+00  0.32028829E+00
  0.31972669E+00  0.31918102E+00  0.31864857E+00  0.31812657E+00  0.31761217E+00
  0.31710252E+00  0.31659477E+00  0.31608610E+00  0.31557374E+00  0.31505502E+00
  0.31452738E+00  0.31398839E+00  0.31343576E+00  0.31286739E+00  0.31228138E+00
  0.31167601E+00  0.31104982E+00  0.31040156E+00  0.30973023E+00  0.30903509E+00
  0.30831567E+00  0.30757175E+00  0.30680337E+00  0.30601084E+00  0.30519473E+00
  0.30435585E+00  0.30349523E+00  0.30261416E+00  0.30171411E+00  0.30079675E+00
  0.29986393E+00  0.29891765E+00  0.29796008E+00  0.29699346E+00  0.29602017E+00
  0.29504262E+00  0.29406331E+00  0.29308472E+00  0.29210936E+00  0.29113970E+00
  0.29017817E+00  0.28922710E+00  0.28828875E+00  0.28736526E+00  0.28645863E+00
  0.28557072E+00  0.28470320E+00  0.28385758E+00  0.28303517E+00  0.28223706E+00
  0.28146415E+00  0.28071709E+00  0.27999631E+00  0.27930201E+00  0.27863417E+00
  0.27799253E+00  0.27737660E+00  0.27678568E+00  0.27621887E+00  0.27567506E+00
  0.27515296E+00  0.27465113E+00  0.27416793E+00  0.27370162E+00  0.27325032E+00
  0.27281205E+00  0.27238473E+00  0.27196624E+00  0.27155439E+00  0.27114700E+00
  0.27074187E+00  0.27033681E+00  0.26992971E+00  0.26951848E+00  0.26910114E+00
  0.26867580E+00  0.26824069E+00  0.26779415E+00  0.26733470E+00  0.26686097E+00
  0.26637181E+00  0.26586621E+00  0.26534337E+00  0.26480266E+00  0.26424367E+00
  0.26366618E+00  0.26307017E+00  0.26245583E+00  0.26182353E+00  0.26117383E+00
  0.26050746E+00  0.25982534E+00  0.25912854E+00  0.25841827E+00  0.25769588E+00
  0.25696286E+00  0.25622077E+00  0.25547129E+00  0.25471616E+00  0.25395719E+00
  0.25319621E+00  0.25243506E+00  0.25167561E+00  0.25091969E+00  0.25016910E+00
  0.24942557E+00  0.24869079E+00  0.24796634E+00  0.24725371E+00  0.24655428E+00
  0.24586930E+00  0.24519988E+00  0.24454701E+00  0.24391150E+00  0.24329402E+00
  0.24269504E+00  0.24211491E+00  0.24155377E+00  0.24101160E+00  0.24048822E+00
  0.23998328E+00  0.23949627E+00  0.23902652E+00  0.23857324E+00  0.23813548E+00
  0.23771219E+00  0.23730219E+00  0.23690420E+00  0.23651685E+00  0.23613871E+00
  0.23576829E+00  0.23540403E+00  0.23504437E+00  0.23468773E+00  0.23433253E+00
  0.23397723E+00  0.23362029E+00  0.23326026E+00  0.23289572E+00  0.23252536E+00
  0.23214791E+00  0.23176226E+00  0.23136736E+00  0.23096230E+00  0.23054629E+00
  0.23011868E+00  0.22967896E+00  0.22922675E+00  0.22876182E+00  0.22828410E+00
  0.22779366E+00  0.22729071E+00  0.22677559E+00  0.22624879E+00  0.22571091E+00
  0.22516270E+00  0.22460498E+00  0.22403870E+00  0.22346490E+00  0.22288470E+00
  0.22229927E+00  0.22170988E+00  0.22111780E+00  0.22052435E+00  0.21993088E+00
  0.21933871E+00  0.21874919E+00  0.21816360E+00  0.21758322E+00  0.21700925E+00
  0.21644285E+00  0.21588510E+00  0.21533700E+00  0.21479944E+00  0.21427325E+00
  0.21375911E+00  0.21325761E+00  0.21276922E+00  0.21229428E+00  0.21183301E+00
  0.21138549E+00  0.21095169E+00  0.21053143E+00  0.21012443E+00  0.20973028E+00
  0.20934845E+00  0.20897833E+00  0.20861917E+00  0.20827016E+00  0.20793039E+00
  0.20759888E+00  0.20727459E+00  0.20695642E+00  0.20664323E+00  0.20633385E+00
  0.20602708E+00  0.20572174E+00  0.20541663E+00  0.20511057E+00  0.20480245E+00
  0.20449115E+00  0.20417563E+00  0.20385491E+00  0.20352808E+00  0.20319432E+00
  0.20285287E+00  0.20250308E+00  0.20214441E+00  0.20177641E+00  0.20139875E+00
  0.20101121E+00  0.20061368E+00  0.20020617E+00  0.19978881E+00  0.19936182E+00
 gradient corrections used for XC
           5
 core charge-density (partial)
  0.89171512E+01  0.89139949E+01  0.89045331E+01  0.88887874E+01  0.88667936E+01
  0.88386015E+01  0.88042749E+01  0.87638912E+01  0.87175409E+01  0.86653275E+01
  0.86073668E+01  0.85437868E+01  0.84747265E+01  0.84003360E+01  0.83207755E+01
  0.82362146E+01  0.81468319E+01  0.80528142E+01  0.79543556E+01  0.78516568E+01
  0.77449247E+01  0.76343711E+01  0.75202124E+01  0.74026685E+01  0.72819625E+01
  0.71583192E+01  0.70319653E+01  0.69031278E+01  0.67720342E+01  0.66389109E+01
  0.65039834E+01  0.63674750E+01  0.62296068E+01  0.60905967E+01  0.59506591E+01
  0.58100042E+01  0.56688381E+01  0.55273615E+01  0.53857701E+01  0.52442538E+01
  0.51029966E+01  0.49621764E+01  0.48219642E+01  0.46825246E+01  0.45440152E+01
  0.44065867E+01  0.42703825E+01  0.41355386E+01  0.40021841E+01  0.38704404E+01
  0.37404216E+01  0.36122346E+01  0.34859790E+01  0.33617469E+01  0.32396235E+01
  0.31196868E+01  0.30020080E+01  0.28866512E+01  0.27736740E+01  0.26631275E+01
  0.25550564E+01  0.24494990E+01  0.23464880E+01  0.22460499E+01  0.21482059E+01
  0.20529716E+01  0.19603575E+01  0.18703690E+01  0.17830069E+01  0.16982673E+01
  0.16161420E+01  0.15366189E+01  0.14596816E+01  0.13853103E+01  0.13134817E+01
  0.12441692E+01  0.11773432E+01  0.11129713E+01  0.10510183E+01  0.99144662E+00
  0.93421661E+00  0.87928640E+00  0.82661230E+00  0.77614893E+00  0.72784939E+00
  0.68166546E+00  0.63754772E+00  0.59544574E+00  0.55530820E+00  0.51708308E+00
  0.48071776E+00  0.44615917E+00  0.41335393E+00  0.38224845E+00  0.35278906E+00
  0.32492211E+00  0.29859410E+00  0.27375175E+00  0.25034210E+00  0.22831260E+00
  0.20761122E+00  0.18818647E+00  0.16998752E+00  0.15296425E+00  0.13706731E+00
  0.12224818E+00  0.10845921E+00  0.95653700E-01  0.83785893E-01  0.72811059E-01
  0.62685506E-01  0.53366617E-01  0.44812874E-01  0.36983881E-01  0.29840383E-01
  0.23344282E-01  0.17458651E-01  0.12147738E-01  0.73769763E-02  0.31129873E-02
 -0.67642164E-03 -0.40222573E-02 -0.69543460E-02 -0.95013405E-02 -0.11690729E-01
 -0.13548847E-01 -0.15100890E-01 -0.16370927E-01 -0.17381920E-01 -0.18155740E-01
 -0.18713188E-01 -0.19074012E-01 -0.19256935E-01 -0.19279673E-01 -0.19158963E-01
 -0.18910582E-01 -0.18549381E-01 -0.18089304E-01 -0.17543418E-01 -0.16923940E-01
 -0.16242266E-01 -0.15508995E-01 -0.14733961E-01 -0.13926263E-01 -0.13094286E-01
 -0.12245738E-01 -0.11387673E-01 -0.10526520E-01 -0.96681141E-02 -0.88177205E-02
 -0.79800641E-02 -0.71593561E-02 -0.63593210E-02 -0.55832229E-02 -0.48338910E-02
 -0.41137456E-02 -0.34248223E-02 -0.27687965E-02 -0.21470072E-02 -0.15604795E-02
 -0.10099472E-02 -0.49587468E-03 -0.18477365E-04  0.42225763E-03  0.82655211E-03
  0.11948180E-02  0.15276392E-02  0.18257543E-02  0.20900401E-02  0.23214953E-02
  0.25212262E-02  0.26904315E-02  0.28303892E-02  0.29424435E-02  0.30279926E-02
  0.30884774E-02  0.31253706E-02  0.31401666E-02  0.31343723E-02  0.31094981E-02
  0.30670501E-02  0.30085223E-02  0.29353901E-02  0.28491039E-02  0.27510836E-02
  0.26427131E-02  0.25253362E-02  0.24002523E-02  0.22687131E-02  0.21319189E-02
  0.19910170E-02  0.18470986E-02  0.17011976E-02  0.15542891E-02  0.14072882E-02
  0.12610497E-02  0.11163676E-02  0.97397504E-03  0.83454481E-03  0.69868969E-03
  0.56696337E-03  0.43986144E-03  0.31782266E-03  0.20123034E-03  0.90413985E-04
 -0.14348962E-04 -0.11283124E-03 -0.20485378E-03 -0.29028353E-03 -0.36903134E-03
 -0.44104963E-03 -0.50633011E-03 -0.56490138E-03 -0.61682653E-03 -0.66220074E-03
 -0.70114883E-03 -0.73382287E-03 -0.76039976E-03 -0.78107884E-03 -0.79607956E-03
 -0.80563919E-03 -0.81001051E-03 -0.80945969E-03 -0.80426411E-03 -0.79471032E-03
 -0.78109202E-03 -0.76370821E-03 -0.74286132E-03 -0.71885548E-03 -0.69199489E-03
 -0.66258226E-03 -0.63091735E-03 -0.59729560E-03 -0.56200686E-03 -0.52533424E-03
 -0.48755301E-03 -0.44892964E-03 -0.40972091E-03 -0.37017313E-03 -0.33052144E-03
 -0.29098920E-03 -0.25178749E-03 -0.21311470E-03 -0.17515613E-03 -0.13808379E-03
 -0.10205618E-03 -0.67218195E-04 -0.33701089E-04 -0.16225012E-05  0.28913443E-04
  0.57815977E-04  0.85007481E-04  0.11042321E-03  0.13401099E-03  0.15573085E-03
  0.17555459E-03  0.19346540E-03  0.20945735E-03  0.22353489E-03  0.23571232E-03
  0.24601324E-03  0.25447000E-03  0.26112308E-03  0.26602053E-03  0.26921734E-03
  0.27077483E-03  0.27076009E-03  0.26924527E-03  0.26630709E-03  0.26202614E-03
  0.25648636E-03  0.24977442E-03  0.24197918E-03  0.23319111E-03  0.22350179E-03
  0.21300337E-03  0.20178811E-03  0.18994786E-03  0.17757365E-03  0.16475526E-03
  0.15158081E-03  0.13813640E-03  0.12450576E-03  0.11076992E-03  0.97006929E-04
  0.83291606E-04  0.69695274E-04  0.56285566E-04  0.43126241E-04  0.30277030E-04
  0.17793504E-04  0.57269737E-05 -0.58755877E-05 -0.16971600E-04 -0.27522902E-04
 -0.37495761E-04 -0.46860856E-04 -0.55593238E-04 -0.63672278E-04 -0.71081590E-04
 -0.77808936E-04 -0.83846120E-04 -0.89188858E-04 -0.93836645E-04 -0.97792600E-04
 -0.10106330E-03 -0.10365862E-03 -0.10559152E-03 -0.10687789E-03 -0.10753634E-03
 -0.10758797E-03 -0.10705622E-03 -0.10596660E-03 -0.10434653E-03 -0.10222507E-03
 -0.99632774E-04 -0.96601422E-04 -0.93163842E-04 -0.89353694E-04 -0.85205268E-04
 -0.80753289E-04 -0.76032722E-04 -0.71078589E-04 -0.65925785E-04 -0.60608916E-04
 -0.55162125E-04 -0.49618946E-04 -0.44012149E-04 -0.38373614E-04 -0.32734193E-04
 -0.27123600E-04 -0.21570300E-04 -0.16101414E-04 -0.10742629E-04 -0.55181262E-05
 -0.45050846E-06  0.44392512E-05  0.91318576E-05  0.13609730E-04  0.17857026E-04
  0.21859662E-04  0.25605319E-04  0.29083439E-04  0.32285220E-04  0.35203592E-04
  0.37833195E-04  0.40170345E-04  0.42212988E-04  0.43960662E-04  0.45414433E-04
  0.46576844E-04  0.47451845E-04  0.48044730E-04  0.48362055E-04  0.48411569E-04
  0.48202130E-04  0.47743622E-04  0.47046873E-04  0.46123562E-04  0.44986136E-04
  0.43647722E-04  0.42122033E-04  0.40423282E-04  0.38566093E-04  0.36565414E-04
  0.34436431E-04  0.32194479E-04  0.29854968E-04  0.27433297E-04  0.24944776E-04
  0.22404557E-04  0.19827557E-04  0.17228396E-04  0.14621328E-04  0.12020187E-04
  0.94383233E-05  0.68885603E-05  0.43831411E-05  0.19336882E-05 -0.44883581E-06
 -0.27541618E-05 -0.49727439E-05 -0.70957840E-05 -0.91152529E-05 -0.11023905E-04
 -0.12815292E-04 -0.14483768E-04 -0.16024493E-04 -0.17433434E-04 -0.18707356E-04
 -0.19843817E-04 -0.20841153E-04 -0.21698466E-04 -0.22415598E-04 -0.22993116E-04
 -0.23432281E-04 -0.23735025E-04 -0.23903917E-04 -0.23942132E-04 -0.23853417E-04
 -0.23642054E-04 -0.23312822E-04 -0.22870958E-04 -0.22322117E-04 -0.21672330E-04
 -0.20927965E-04 -0.20095681E-04 -0.19182389E-04 -0.18195206E-04 -0.17141420E-04
 -0.16028438E-04 -0.14863754E-04 -0.13654906E-04 -0.12409434E-04 -0.11134846E-04
 -0.98385777E-05 -0.85279606E-05 -0.72101854E-05 -0.58922710E-05 -0.45810340E-05
 -0.32830605E-05 -0.20046792E-05 -0.75193739E-06  0.46942176E-06  0.16539791E-05
  0.27966578E-05  0.38927386E-05  0.49378740E-05  0.59280993E-05  0.68598413E-05
  0.77299261E-05  0.85355829E-05  0.92744472E-05  0.99445609E-05  0.10544371E-04
  0.11072727E-04  0.11528872E-04  0.11912440E-04  0.12223446E-04  0.12462272E-04
  0.12629658E-04  0.12726688E-04  0.12754775E-04  0.12715644E-04  0.12611316E-04
  0.12444089E-04  0.12216519E-04  0.11931400E-04  0.11591744E-04  0.11200759E-04
  0.10761830E-04  0.10278492E-04  0.97544153E-05  0.91933776E-05  0.85992447E-05
  0.79759482E-05  0.73274638E-05  0.66577905E-05  0.59709297E-05  0.52708649E-05
  0.45615419E-05  0.38468507E-05  0.31306066E-05  0.24165335E-05  0.17082470E-05
  0.10092398E-05  0.32286646E-06 -0.34766911E-06 -0.99932642E-06 -0.16292392E-05
 -0.22347254E-05 -0.28132960E-05 -0.33626625E-05 -0.38807432E-05 -0.43656687E-05
 -0.48157855E-05 -0.52296591E-05 -0.56060757E-05 -0.59440422E-05 -0.62427864E-05
 -0.65017548E-05 -0.67206097E-05 -0.68992262E-05 -0.70376868E-05 -0.71362759E-05
 -0.71954739E-05 -0.72159491E-05 -0.71985503E-05 -0.71442974E-05 -0.70543730E-05
 -0.69301114E-05 -0.67729887E-05 -0.65846120E-05 -0.63667077E-05 -0.61211101E-05
 -0.58497495E-05 -0.55546403E-05 -0.52378685E-05 -0.49015798E-05 -0.45479671E-05
 -0.41792586E-05 -0.37977054E-05 -0.34055698E-05 -0.30051138E-05 -0.25985874E-05
 -0.21882180E-05 -0.17761991E-05 -0.13646808E-05 -0.95575942E-06 -0.55146871E-06
 -0.15377072E-06  0.23545217E-06  0.61440489E-06  0.98138666E-06  0.13347973E-05
  0.16731430E-05  0.19950411E-05  0.22992249E-05  0.25845468E-05  0.28499817E-05
  0.30946291E-05  0.33177149E-05  0.35185921E-05  0.36967416E-05  0.38517711E-05
  0.39834151E-05  0.40915325E-05  0.41761048E-05  0.42372337E-05  0.42751372E-05
  0.42901462E-05  0.42827006E-05  0.42533438E-05  0.42027184E-05  0.41315602E-05
  0.40406929E-05  0.39310214E-05  0.38035258E-05  0.36592547E-05  0.34993185E-05
  0.33248820E-05  0.31371581E-05  0.29373997E-05  0.27268932E-05  0.25069513E-05
  0.22789051E-05  0.20440977E-05  0.18038772E-05  0.15595892E-05  0.13125706E-05
  0.10641429E-05  0.81560605E-06  0.56823197E-06  0.32325925E-06  0.81887333E-07
 -0.15472853E-06 -0.38548220E-06 -0.60932111E-06 -0.82525042E-06 -0.10323368E-05
 -0.12297117E-05 -0.14165745E-05 -0.15921949E-05 -0.17559153E-05 -0.19071522E-05
 -0.20453979E-05 -0.21702214E-05 -0.22812687E-05 -0.23782633E-05 -0.24610055E-05
 -0.25293722E-05 -0.25833157E-05 -0.26228624E-05 -0.26481110E-05 -0.26592308E-05
 -0.26564589E-05 -0.26400980E-05 -0.26105133E-05 -0.25681294E-05 -0.25134270E-05
 -0.24469391E-05 -0.23692475E-05 -0.22809789E-05 -0.21828003E-05 -0.20754156E-05
 -0.19595605E-05 -0.18359989E-05 -0.17055179E-05 -0.15689236E-05 -0.14270365E-05
 -0.12806876E-05 -0.11307132E-05 -0.97795134E-06 -0.82323693E-06 -0.66739808E-06
 -0.51125182E-06 -0.35560031E-06 -0.20122706E-06 -0.48893403E-07  0.10066494E-06
  0.24674098E-06  0.38865952E-06  0.52577985E-06  0.65749829E-06  0.78325055E-06
  0.90251369E-06  0.10148080E-05  0.11196986E-05  0.12167965E-05  0.13057601E-05
  0.13862954E-05  0.14581570E-05  0.15211483E-05  0.15751213E-05  0.16199766E-05
  0.16556630E-05  0.16821764E-05  0.16995597E-05  0.17079007E-05  0.17073316E-05
  0.16980270E-05  0.16802024E-05  0.16541122E-05  0.16200478E-05  0.15783354E-05
  0.15293335E-05  0.14734309E-05  0.14110435E-05  0.13426124E-05  0.12686009E-05
  0.11894914E-05  0.11057833E-05  0.10179895E-05  0.92663415E-06  0.83224929E-06
  0.73537233E-06  0.63654318E-06  0.53630143E-06  0.43518370E-06  0.33372099E-06
  0.23243609E-06  0.13184111E-06  0.32435113E-07 -0.65298146E-07 -0.16089239E-06
 -0.25390081E-06 -0.34389798E-06 -0.43048160E-06 -0.51327406E-06 -0.59192390E-06
 -0.66610711E-06 -0.73552823E-06 -0.79992134E-06 -0.85905081E-06 -0.91271196E-06
 -0.96073154E-06 -0.10029680E-05 -0.10393115E-05 -0.10696843E-05 -0.10940400E-05
 -0.11123636E-05 -0.11246708E-05 -0.11310076E-05 -0.11314493E-05 -0.11260995E-05
 -0.11150895E-05 -0.10985767E-05 -0.10767435E-05 -0.10497960E-05 -0.10179626E-05
 -0.98149203E-06 -0.94065226E-06 -0.89572853E-06 -0.84702164E-06 -0.79484620E-06
 -0.73952878E-06 -0.68140606E-06 -0.62082293E-06 -0.55813065E-06 -0.49368497E-06
 -0.42784422E-06 -0.36096750E-06 -0.29341283E-06 -0.22553541E-06 -0.15768583E-06
 -0.90208430E-07 -0.23439662E-07  0.42293477E-07  0.10667491E-06  0.16940088E-06
  0.23018127E-06  0.28874084E-06  0.34482032E-06  0.39817746E-06  0.44858796E-06
  0.49584628E-06  0.53976633E-06  0.58018213E-06  0.61694822E-06  0.64994012E-06
  0.67905453E-06  0.70420954E-06  0.72534464E-06  0.74242067E-06  0.75541967E-06
  0.76434458E-06  0.76921891E-06  0.77008622E-06  0.76700961E-06  0.76007105E-06
  0.74937066E-06  0.73502587E-06  0.71717059E-06  0.69595421E-06  0.67154061E-06
  0.64410710E-06  0.61384329E-06  0.58094992E-06  0.54563771E-06  0.50812607E-06
  0.46864190E-06  0.42741832E-06  0.38469336E-06  0.34070871E-06  0.29570843E-06
  0.24993770E-06  0.20364156E-06  0.15706366E-06  0.11044509E-06  0.64023171E-07
  0.18030369E-07 -0.27306837E-07 -0.71768974E-07 -0.11514457E-06 -0.15723109E-06
 -0.19783581E-06 -0.23677662E-06 -0.27388276E-06 -0.30899554E-06 -0.34196888E-06
 -0.37266989E-06 -0.40097929E-06 -0.42679182E-06 -0.45001653E-06 -0.47057700E-06
 -0.48841151E-06 -0.50347309E-06 -0.51572956E-06 -0.52516340E-06 -0.53177165E-06
 -0.53556566E-06 -0.53657085E-06 -0.53482630E-06 -0.53038437E-06 -0.52331024E-06
 -0.51368133E-06 -0.50158677E-06 -0.48712673E-06 -0.47041175E-06 -0.45156204E-06
 -0.43070670E-06 -0.40798294E-06 -0.38353525E-06 -0.35751457E-06 -0.33007744E-06
 -0.30138511E-06 -0.27160265E-06 -0.24089808E-06 -0.20944145E-06 -0.17740398E-06
 -0.14495718E-06 -0.11227194E-06 -0.79517741E-07 -0.46861787E-07 -0.14468200E-07
  0.17502746E-07  0.48895380E-07  0.79559346E-07  0.10935027E-06  0.13813042E-06
  0.16576925E-06  0.19214400E-06  0.21714015E-06  0.24065192E-06  0.26258259E-06
  0.28284496E-06  0.30136153E-06  0.31806482E-06  0.33289753E-06  0.34581267E-06
  0.35677365E-06  0.36575432E-06  0.37273889E-06  0.37772192E-06  0.38070816E-06
  0.38171237E-06  0.38075910E-06  0.37788242E-06  0.37312561E-06  0.36654081E-06
  0.35818859E-06  0.34813757E-06  0.33646391E-06  0.32325087E-06  0.30858820E-06
  0.29257168E-06  0.27530250E-06  0.25688668E-06  0.23743447E-06  0.21705972E-06
  0.19587926E-06  0.17401230E-06  0.15157974E-06  0.12870356E-06  0.10550621E-06
  0.82109970E-07  0.58636319E-07  0.35205369E-07  0.11935260E-07 -0.11058399E-07
 -0.33663077E-07 -0.55769842E-07 -0.77273859E-07 -0.98074854E-07 -0.11807755E-06
 -0.13719210E-06 -0.15533441E-06 -0.17242652E-06 -0.18839691E-06 -0.20318074E-06
 -0.21672010E-06 -0.22896418E-06 -0.23986947E-06 -0.24939981E-06 -0.25752652E-06
 -0.26422842E-06 -0.26949182E-06 -0.27331050E-06 -0.27568560E-06 -0.27662557E-06
 -0.27614595E-06 -0.27426926E-06 -0.27102474E-06 -0.26644812E-06 -0.26058137E-06
 -0.25347237E-06 -0.24517459E-06 -0.23574678E-06 -0.22525255E-06 -0.21376000E-06
 -0.20134132E-06 -0.18807237E-06 -0.17403224E-06 -0.15930282E-06 -0.14396832E-06
 -0.12811484E-06 -0.11182990E-06 -0.95201990E-07 -0.78320095E-07 -0.61273250E-07
 -0.44150091E-07 -0.27038412E-07 -0.10024735E-07  0.68061052E-08  0.23371369E-07
  0.39590795E-07  0.55386974E-07  0.70685696E-07  0.85416283E-07  0.99511892E-07
  0.11290980E-06  0.12555167E-06  0.13738378E-06  0.14835722E-06  0.15842809E-06
  0.16755765E-06  0.17571241E-06  0.18286430E-06  0.18899067E-06  0.19407434E-06
  0.19810367E-06  0.20107246E-06  0.20297996E-06  0.20383081E-06  0.20363489E-06
  0.20240725E-06  0.20016795E-06  0.19694187E-06  0.19275856E-06  0.18765200E-06
  0.18166036E-06  0.17482580E-06  0.16719416E-06  0.15881467E-06  0.14973971E-06
  0.14002446E-06  0.12972662E-06  0.11890603E-06  0.10762441E-06  0.95944963E-07
  0.83932089E-07  0.71651005E-07  0.59167426E-07  0.46547225E-07  0.33856095E-07
  0.21159225E-07  0.85209749E-08 -0.39954340E-08 -0.16328225E-07 -0.28417355E-07
 -0.40204800E-07 -0.51634814E-07 -0.62654182E-07 -0.73212458E-07 -0.83262179E-07
 -0.92759066E-07 -0.10166221E-06 -0.10993422E-06 -0.11754139E-06 -0.12445379E-06
 -0.13064540E-06 -0.13609417E-06 -0.14078207E-06 -0.14469518E-06 -0.14782362E-06
 -0.15016164E-06 -0.15170753E-06 -0.15246361E-06 -0.15243616E-06 -0.15163534E-06
 -0.15007505E-06 -0.14777290E-06 -0.14474997E-06 -0.14103075E-06 -0.13664290E-06
 -0.13161712E-06 -0.12598694E-06 -0.11978852E-06 -0.11306042E-06 -0.10584339E-06
 -0.98180120E-07 -0.90115040E-07 -0.81694027E-07 -0.72964182E-07 -0.63973573E-07
 -0.54770976E-07 -0.45405628E-07 -0.35926968E-07 -0.26384386E-07 -0.16826977E-07
 -0.73032975E-08  0.21388754E-08  0.11452771E-07  0.20592849E-07  0.29515015E-07
  0.38176822E-07  0.46537667E-07  0.54558969E-07  0.62204338E-07  0.69439734E-07
  0.76233609E-07  0.82557032E-07  0.88383804E-07  0.93690555E-07  0.98456832E-07
  0.10266516E-06  0.10630109E-06  0.10935324E-06  0.11181333E-06  0.11367615E-06
  0.11493958E-06  0.11560454E-06  0.11567498E-06  0.11515779E-06  0.11406272E-06
  0.11240237E-06  0.11019198E-06  0.10744944E-06  0.10419505E-06  0.10045150E-06
  0.96243633E-07  0.91598361E-07  0.86544468E-07  0.81112452E-07  0.75334353E-07
  0.69243573E-07  0.62874687E-07  0.56263260E-07  0.49445652E-07  0.42458828E-07
  0.35340164E-07  0.28127252E-07  0.20857712E-07  0.13568998E-07  0.62982138E-08
 -0.91806869E-09 -0.80439899E-08 -0.15044573E-07 -0.21885890E-07 -0.28535219E-07
 kinetic energy density (partial)
  0.61623881E+03  0.61603995E+03  0.61544377E+03  0.61445147E+03  0.61306503E+03
  0.61128722E+03  0.60912158E+03  0.60657241E+03  0.60364477E+03  0.60034441E+03
  0.59667781E+03  0.59265213E+03  0.58827517E+03  0.58355537E+03  0.57850175E+03
  0.57312391E+03  0.56743196E+03  0.56143652E+03  0.55514867E+03  0.54857990E+03
  0.54174210E+03  0.53464749E+03  0.52730861E+03  0.51973826E+03  0.51194948E+03
  0.50395547E+03  0.49576962E+03  0.48740541E+03  0.47887640E+03  0.47019620E+03
  0.46137840E+03  0.45243658E+03  0.44338425E+03  0.43423482E+03  0.42500157E+03
  0.41569762E+03  0.40633592E+03  0.39692918E+03  0.38748991E+03  0.37803032E+03
  0.36856237E+03  0.35909770E+03  0.34964762E+03  0.34022312E+03  0.33083483E+03
  0.32149302E+03  0.31220758E+03  0.30298799E+03  0.29384335E+03  0.28478237E+03
  0.27581331E+03  0.26694405E+03  0.25818203E+03  0.24953429E+03  0.24100741E+03
  0.23260759E+03  0.22434059E+03  0.21621176E+03  0.20822603E+03  0.20038792E+03
  0.19270156E+03  0.18517068E+03  0.17779860E+03  0.17058828E+03  0.16354231E+03
  0.15666289E+03  0.14995189E+03  0.14341083E+03  0.13704088E+03  0.13084291E+03
  0.12481746E+03  0.11896476E+03  0.11328479E+03  0.10777720E+03  0.10244142E+03
  0.97276587E+02  0.92281631E+02  0.87455232E+02  0.82795857E+02  0.78301768E+02
  0.73971035E+02  0.69801544E+02  0.65791015E+02  0.61937008E+02  0.58236938E+02
  0.54688086E+02  0.51287606E+02  0.48032545E+02  0.44919842E+02  0.41946351E+02
  0.39108838E+02  0.36404004E+02  0.33828483E+02  0.31378861E+02  0.29051678E+02
  0.26843440E+02  0.24750627E+02  0.22769700E+02  0.20897110E+02  0.19129305E+02
  0.17462738E+02  0.15893870E+02  0.14419180E+02  0.13035173E+02  0.11738378E+02
  0.10525362E+02  0.93927304E+01  0.83371311E+01  0.73552620E+01  0.64438731E+01
  0.55997708E+01  0.48198214E+01  0.41009542E+01  0.34401644E+01  0.28345159E+01
  0.22811435E+01  0.17772551E+01  0.13201333E+01  0.90713717E+00  0.53570352E+00
  0.20334794E+00 -0.92334289E-01 -0.35366761E+00 -0.58289572E+00 -0.78218137E+00
 -0.95360629E+00 -0.10991714E+01 -0.12207970E+01 -0.13203236E+01 -0.13995119E+01
 -0.14600443E+01 -0.15035255E+01 -0.15314834E+01 -0.15453705E+01 -0.15465652E+01
 -0.15363730E+01 -0.15160282E+01 -0.14866952E+01 -0.14494705E+01 -0.14053840E+01
 -0.13554012E+01 -0.13004247E+01 -0.12412964E+01 -0.11787991E+01 -0.11136585E+01
 -0.10465457E+01 -0.97807833E+00 -0.90882339E+00 -0.83929882E+00 -0.76997568E+00
 -0.70128020E+00 -0.63359577E+00 -0.56726501E+00 -0.50259171E+00 -0.43984291E+00
 -0.37925077E+00 -0.32101458E+00 -0.26530260E+00 -0.21225398E+00 -0.16198058E+00
 -0.11456874E+00 -0.70081075E-01 -0.28558127E-01  0.99799381E-02  0.45531737E-01
  0.78113107E-01  0.10775560E+00  0.13450504E+00  0.15842011E+00  0.17957101E+00
  0.19803818E+00  0.21391105E+00  0.22728691E+00  0.23826972E+00  0.24696912E+00
  0.25349937E+00  0.25797844E+00  0.26052711E+00  0.26126809E+00  0.26032530E+00
  0.25782308E+00  0.25388556E+00  0.24863600E+00  0.24219623E+00  0.23468609E+00
  0.22622300E+00  0.21692148E+00  0.20689280E+00  0.19624459E+00  0.18508055E+00
  0.17350021E+00  0.16159867E+00  0.14946642E+00  0.13718920E+00  0.12484785E+00
  0.11251823E+00  0.10027119E+00  0.88172471E-01  0.76282775E-01  0.64657728E-01
  0.53347945E-01  0.42399088E-01  0.31851951E-01  0.21742558E-01  0.12102282E-01
  0.29579761E-02 -0.56678815E-02 -0.13757028E-01 -0.21295250E-01 -0.28272207E-01
 -0.34681243E-01 -0.40519202E-01 -0.45786224E-01 -0.50485551E-01 -0.54623321E-01
 -0.58208363E-01 -0.61251992E-01 -0.63767804E-01 -0.65771470E-01 -0.67280534E-01
 -0.68314217E-01 -0.68893215E-01 -0.69039511E-01 -0.68776187E-01 -0.68127242E-01
 -0.67117417E-01 -0.65772026E-01 -0.64116792E-01 -0.62177693E-01 -0.59980813E-01
 -0.57552202E-01 -0.54917744E-01 -0.52103035E-01 -0.49133263E-01 -0.46033101E-01
 -0.42826614E-01 -0.39537159E-01 -0.36187309E-01 -0.32798776E-01 -0.29392346E-01
 -0.25987820E-01 -0.22603965E-01 -0.19258471E-01 -0.15967916E-01 -0.12747737E-01
 -0.96122148E-02 -0.65744519E-02 -0.36463718E-02 -0.83871477E-03  0.18389568E-02
  0.43782481E-02  0.67719168E-02  0.90138525E-02  0.11099052E-01  0.13023589E-01
  0.14784584E-01  0.16380165E-01  0.17809429E-01  0.19072400E-01  0.20169983E-01
  0.21103917E-01  0.21876729E-01  0.22491678E-01  0.22952708E-01  0.23264394E-01
  0.23431886E-01  0.23460862E-01  0.23357467E-01  0.23128266E-01  0.22780186E-01
  0.22320468E-01  0.21756611E-01  0.21096325E-01  0.20347482E-01  0.19518068E-01
  0.18616134E-01  0.17649756E-01  0.16626991E-01  0.15555836E-01  0.14444192E-01
  0.13299823E-01  0.12130329E-01  0.10943108E-01  0.97453333E-02  0.85439207E-02
  0.73455081E-02  0.61564328E-02  0.49827117E-02  0.38300246E-02  0.27036997E-02
  0.16087013E-02  0.54962031E-03 -0.46933401E-03 -0.14443389E-02 -0.23719614E-02
 -0.32491598E-02 -0.40732824E-02 -0.48420653E-02 -0.55536274E-02 -0.62064645E-02
 -0.67994411E-02 -0.73317814E-02 -0.78030585E-02 -0.82131821E-02 -0.85623857E-02
 -0.88512119E-02 -0.90804973E-02 -0.92513567E-02 -0.93651658E-02 -0.94235442E-02
 -0.94283371E-02 -0.93815973E-02 -0.92855662E-02 -0.91426552E-02 -0.89554267E-02
 -0.87265749E-02 -0.84589074E-02 -0.81553261E-02 -0.78188087E-02 -0.74523912E-02
 -0.70591496E-02 -0.66421827E-02 -0.62045959E-02 -0.57494849E-02 -0.52799200E-02
 -0.47989320E-02 -0.43094977E-02 -0.38145272E-02 -0.33168514E-02 -0.28192105E-02
 -0.23242433E-02 -0.18344781E-02 -0.13523231E-02 -0.88005925E-03 -0.41983286E-03
  0.26350127E-04  0.45662934E-03  0.86929413E-03  0.12627868E-02  0.16357052E-02
  0.19868040E-02  0.23149954E-02  0.26193493E-02  0.28990922E-02  0.31536056E-02
  0.33824236E-02  0.35852300E-02  0.37618544E-02  0.39122682E-02  0.40365798E-02
  0.41350290E-02  0.42079813E-02  0.42559217E-02  0.42794485E-02  0.42792654E-02
  0.42561753E-02  0.42110722E-02  0.41449338E-02  0.40588136E-02  0.39538329E-02
  0.38311729E-02  0.36920667E-02  0.35377912E-02  0.33696592E-02  0.31890114E-02
  0.29972089E-02  0.27956254E-02  0.25856398E-02  0.23686292E-02  0.21459617E-02
  0.19189901E-02  0.16890451E-02  0.14574297E-02  0.12254131E-02  0.99422561E-03
  0.76505362E-03  0.53903490E-03  0.31725448E-03  0.10074079E-03 -0.10953770E-03
 -0.31267552E-03 -0.50783278E-03 -0.69423731E-03 -0.87118649E-03 -0.10380486E-02
 -0.11942636E-02 -0.13393442E-02 -0.14728755E-02 -0.15945151E-02 -0.17039927E-02
 -0.18011088E-02 -0.18857339E-02 -0.19578070E-02 -0.20173335E-02 -0.20643834E-02
 -0.20990888E-02 -0.21216412E-02 -0.21322893E-02 -0.21313351E-02 -0.21191316E-02
 -0.20960789E-02 -0.20626210E-02 -0.20192422E-02 -0.19664632E-02 -0.19048379E-02
 -0.18349488E-02 -0.17574040E-02 -0.16728329E-02 -0.15818823E-02 -0.14852131E-02
 -0.13834959E-02 -0.12774077E-02 -0.11676282E-02 -0.10548364E-02 -0.93970682E-03
 -0.82290656E-03 -0.70509197E-03 -0.58690568E-03 -0.46897371E-03 -0.35190280E-03
 -0.23627787E-03 -0.12265968E-03 -0.11582721E-04  0.96446813E-04  0.20095273E-03
  0.30149043E-03  0.39764825E-03  0.48904860E-03  0.57534898E-03  0.65624265E-03
  0.73145921E-03  0.80076499E-03  0.86396313E-03  0.92089364E-03  0.97143309E-03
  0.10154943E-02  0.10530258E-02  0.10840108E-02  0.11084670E-02  0.11264448E-02
  0.11380264E-02  0.11433249E-02  0.11424824E-02  0.11356685E-02  0.11230791E-02
  0.11049344E-02  0.10814769E-02  0.10529701E-02  0.10196964E-02  0.98195479E-03
  0.94005946E-03  0.89433742E-03  0.84512665E-03  0.79277403E-03  0.73763342E-03
  0.68006362E-03  0.62042643E-03  0.55908478E-03  0.49640079E-03  0.43273403E-03
  0.36843971E-03  0.30386703E-03  0.23935754E-03  0.17524364E-03  0.11184708E-03
  0.49477686E-04 -0.11567988E-04 -0.71007760E-04 -0.12857490E-03 -0.18401910E-03
 -0.23710728E-03 -0.28762437E-03 -0.33537393E-03 -0.38017866E-03 -0.42188081E-03
 -0.46034250E-03 -0.49544592E-03 -0.52709338E-03 -0.55520736E-03 -0.57973033E-03
 -0.60062462E-03 -0.61787201E-03 -0.63147345E-03 -0.64144849E-03 -0.64783476E-03
 -0.65068734E-03 -0.65007801E-03 -0.64609450E-03 -0.63883968E-03 -0.62843060E-03
 -0.61499761E-03 -0.59868333E-03 -0.57964168E-03 -0.55803676E-03 -0.53404183E-03
 -0.50783819E-03 -0.47961403E-03 -0.44956338E-03 -0.41788493E-03 -0.38478094E-03
 -0.35045612E-03 -0.31511652E-03 -0.27896851E-03 -0.24221764E-03 -0.20506771E-03
 -0.16771971E-03 -0.13037090E-03 -0.93213897E-04 -0.56435811E-04 -0.20217417E-04
  0.15267603E-04  0.49853375E-04  0.83382491E-04  0.11570661E-03  0.14668698E-03
  0.17619496E-03  0.20411238E-03  0.23033194E-03  0.25475749E-03  0.27730425E-03
  0.29789898E-03  0.31648010E-03  0.33299771E-03  0.34741359E-03  0.35970114E-03
  0.36984522E-03  0.37784199E-03  0.38369864E-03  0.38743314E-03  0.38907391E-03
  0.38865938E-03  0.38623765E-03  0.38186596E-03  0.37561024E-03  0.36754457E-03
  0.35775060E-03  0.34631699E-03  0.33333882E-03  0.31891693E-03  0.30315730E-03
  0.28617039E-03  0.26807051E-03  0.24897512E-03  0.22900420E-03  0.20827953E-03
  0.18692412E-03  0.16506149E-03  0.14281506E-03  0.12030752E-03  0.97660238E-04
  0.74992662E-04  0.52421761E-04  0.30061486E-04  0.80222611E-05 -0.13589503E-04
 -0.34671861E-04 -0.55127749E-04 -0.74865376E-04 -0.93798572E-04 -0.11184711E-03
 -0.12893697E-03 -0.14500060E-03 -0.15997712E-03 -0.17381247E-03 -0.18645956E-03
 -0.19787833E-03 -0.20803585E-03 -0.21690631E-03 -0.22447099E-03 -0.23071824E-03
 -0.23564334E-03 -0.23924844E-03 -0.24154236E-03 -0.24254042E-03 -0.24226424E-03
 -0.24074148E-03 -0.23800559E-03 -0.23409551E-03 -0.22905536E-03 -0.22293413E-03
 -0.21578529E-03 -0.20766649E-03 -0.19863911E-03 -0.18876793E-03 -0.17812072E-03
 -0.16676779E-03 -0.15478167E-03 -0.14223662E-03 -0.12920824E-03 -0.11577310E-03
 -0.10200826E-03 -0.87990951E-04 -0.73798108E-04 -0.59506038E-04 -0.45190022E-04
 -0.30923961E-04 -0.16780026E-04 -0.28283351E-05  0.10863370E-04  0.24230013E-04
  0.37209463E-04  0.49742786E-04  0.61774486E-04  0.73252714E-04  0.84129460E-04
  0.94360718E-04  0.10390663E-03  0.11273162E-03  0.12080447E-03  0.12809839E-03
  0.13459109E-03  0.14026481E-03  0.14510627E-03  0.14910671E-03  0.15226183E-03
  0.15457168E-03  0.15604066E-03  0.15667733E-03  0.15649436E-03  0.15550831E-03
  0.15373954E-03  0.15121200E-03  0.14795306E-03  0.14399327E-03  0.13936617E-03
  0.13410809E-03  0.12825785E-03  0.12185658E-03  0.11494741E-03  0.10757527E-03
  0.99786585E-04  0.91629037E-04  0.83151288E-04  0.74402721E-04  0.65433174E-04
  0.56292681E-04  0.47031213E-04  0.37698428E-04  0.28343426E-04  0.19014509E-04
  0.97589545E-05  0.62279017E-06 -0.83494108E-05 -0.17114731E-04 -0.25632096E-04
 -0.33862444E-04 -0.41768895E-04 -0.49316886E-04 -0.56474315E-04 -0.63211651E-04
 -0.69502036E-04 -0.75321379E-04 -0.80648421E-04 -0.85464793E-04 -0.89755059E-04
 -0.93506736E-04 -0.96710310E-04 -0.99359224E-04 -0.10144986E-03 -0.10298152E-03
 -0.10395634E-03 -0.10437926E-03 -0.10425795E-03 -0.10360270E-03 -0.10242634E-03
 -0.10074411E-03 -0.98573583E-04 -0.95934469E-04 -0.92848536E-04 -0.89339433E-04
 -0.85432546E-04 -0.81154837E-04 -0.76534681E-04 -0.71601696E-04 -0.66386573E-04
 -0.60920900E-04 -0.55236988E-04 -0.49367695E-04 -0.43346248E-04 -0.37206072E-04
 -0.30980613E-04 -0.24703173E-04 -0.18406740E-04 -0.12123829E-04 -0.58863251E-05
  0.27466718E-06  0.63289679E-05  0.12247458E-04  0.18002210E-04  0.23566605E-04
  0.28915451E-04  0.34025079E-04  0.38873443E-04  0.43440199E-04  0.47706782E-04
  0.51656469E-04  0.55274432E-04  0.58547778E-04  0.61465589E-04  0.64018937E-04
  0.66200895E-04  0.68006546E-04  0.69432966E-04  0.70479209E-04  0.71146278E-04
  0.71437088E-04  0.71356416E-04  0.70910852E-04  0.70108728E-04  0.68960051E-04
  0.67476427E-04  0.65670969E-04  0.63558211E-04  0.61154008E-04  0.58475437E-04
  0.55540686E-04  0.52368948E-04  0.48980305E-04  0.45395612E-04  0.41636379E-04
  0.37724652E-04  0.33682892E-04  0.29533854E-04  0.25300468E-04  0.21005720E-04
  0.16672535E-04  0.12323661E-04  0.79815580E-05  0.36682878E-05 -0.59459020E-06
 -0.47861205E-05 -0.88860477E-05 -0.12874907E-04 -0.16734113E-04 -0.20446033E-04
 -0.23994070E-04 -0.27362721E-04 -0.30537646E-04 -0.33505715E-04 -0.36255061E-04
 -0.38775116E-04 -0.41056645E-04 -0.43091771E-04 -0.44873997E-04 -0.46398210E-04
 -0.47660693E-04 -0.48659114E-04 -0.49392522E-04 -0.49861327E-04 -0.50067279E-04
 -0.50013434E-04 -0.49704121E-04 -0.49144902E-04 -0.48342519E-04 -0.47304846E-04
 -0.46040831E-04 -0.44560432E-04 -0.42874552E-04 -0.40994972E-04 -0.38934270E-04
 -0.36705754E-04 -0.34323379E-04 -0.31801664E-04 -0.29155617E-04 -0.26400643E-04
 -0.23552466E-04 -0.20627043E-04 -0.17640479E-04 -0.14608942E-04 -0.11548584E-04
 -0.84754561E-05 -0.54054297E-05 -0.23541199E-05  0.66319078E-06  0.36316240E-05
  0.65367751E-05  0.93647788E-05  0.12102371E-04  0.14736947E-04  0.17256615E-04
  0.19650246E-04  0.21907520E-04  0.24018961E-04  0.25975979E-04  0.27770896E-04
  0.29396973E-04  0.30848427E-04  0.32120450E-04  0.33209218E-04  0.34111894E-04
  0.34826627E-04  0.35352550E-04  0.35689767E-04  0.35839342E-04  0.35803271E-04
  0.35584470E-04  0.35186736E-04  0.34614721E-04  0.33873893E-04  0.32970499E-04
  0.31911520E-04  0.30704623E-04  0.29358119E-04  0.27880902E-04  0.26282404E-04
  0.24572535E-04  0.22761627E-04  0.20860375E-04  0.18879777E-04  0.16831077E-04
  0.14725702E-04  0.12575201E-04  0.10391186E-04  0.81852736E-05  0.59690233E-05
  0.37538815E-05  0.15511251E-05 -0.62819362E-06 -0.27732992E-05 -0.48737438E-05
 -0.69194557E-05 -0.89007844E-05 -0.10808544E-04 -0.12634052E-04 -0.14369167E-04
 -0.16006324E-04 -0.17538559E-04 -0.18959543E-04 -0.20263600E-04 -0.21445726E-04
 -0.22501609E-04 -0.23427639E-04 -0.24220915E-04 -0.24879252E-04 -0.25401180E-04
 -0.25785942E-04 -0.26033491E-04 -0.26144473E-04 -0.26120224E-04 -0.25962744E-04
 -0.25674683E-04 -0.25259319E-04 -0.24720529E-04 -0.24062764E-04 -0.23291019E-04
 -0.22410797E-04 -0.21428076E-04 -0.20349274E-04 -0.19181207E-04 -0.17931052E-04
 -0.16606303E-04 -0.15214732E-04 -0.13764341E-04 -0.12263325E-04 -0.10720021E-04
 -0.91428684E-05 -0.75403644E-05 -0.59210179E-05 -0.42933085E-05 -0.26656428E-05
 -0.10463135E-05  0.55654130E-06  0.21349774E-05  0.36812818E-05  0.51880086E-05
  0.66480133E-05  0.80544849E-05  0.94009755E-05  0.10681429E-04  0.11890204E-04
  0.13022102E-04  0.14072380E-04  0.15036778E-04  0.15911524E-04  0.16693355E-04
  0.17379521E-04  0.17967797E-04  0.18456481E-04  0.18844403E-04  0.19130917E-04
  0.19315904E-04  0.19399758E-04  0.19383386E-04  0.19268188E-04  0.19056049E-04
  0.18749322E-04  0.18350809E-04  0.17863741E-04  0.17291757E-04  0.16638880E-04
  0.15909489E-04  0.15108297E-04  0.14240319E-04  0.13310844E-04  0.12325404E-04
  0.11289744E-04  0.10209790E-04  0.90916151E-05  0.79414080E-05  0.67654404E-05
  0.55700339E-05  0.43615272E-05  0.31462436E-05  0.19304600E-05  0.72037461E-06
 -0.47792240E-06 -0.16584790E-05 -0.28155094E-05 -0.39434214E-05 -0.50368418E-05
 -0.60906413E-05 -0.70999573E-05 -0.80602147E-05 -0.89671458E-05 -0.98168079E-05
 -0.10605599E-04 -0.11330272E-04 -0.11987947E-04 -0.12576119E-04 -0.13092669E-04
 -0.13535868E-04 -0.13904382E-04 -0.14197272E-04 -0.14413995E-04 -0.14554401E-04
 -0.14618732E-04 -0.14607610E-04 -0.14522034E-04 -0.14363368E-04 -0.14133331E-04
 -0.13833983E-04 -0.13467709E-04 -0.13037204E-04 -0.12545459E-04 -0.11995734E-04
 -0.11391548E-04 -0.10736648E-04 -0.10034996E-04 -0.92907417E-05 -0.85081981E-05
 -0.76918215E-05 -0.68461841E-05 -0.59759511E-05 -0.50858548E-05 -0.41806706E-05
 -0.32651919E-05 -0.23442059E-05 -0.14224689E-05 -0.50468330E-06  0.40452611E-06
  0.13006344E-05  0.21792381E-05  0.30360764E-05  0.38670505E-05  0.46682427E-05
  0.54359340E-05  0.61666206E-05  0.68570288E-05  0.75041290E-05  0.81051480E-05
  0.86575802E-05  0.91591965E-05  0.96080530E-05  0.10002497E-04  0.10341171E-04
  0.10623019E-04  0.10847284E-04  0.11013511E-04  0.11121547E-04  0.11171534E-04
  0.11163907E-04  0.11099391E-04  0.10978988E-04  0.10803975E-04  0.10575888E-04
  0.10296517E-04  0.99678889E-05  0.95922593E-05  0.91720939E-05  0.87100564E-05
  0.82089912E-05  0.76719078E-05  0.71019631E-05  0.65024437E-05  0.58767480E-05
  0.52283675E-05  0.45608679E-05  0.38778703E-05  0.31830325E-05  0.24800294E-05
  0.17725348E-05  0.10642023E-05  0.35864770E-06 -0.34056973E-06 -0.10299640E-05
 -0.17061393E-05 -0.23658064E-05 -0.30057980E-05 -0.36230830E-05 -0.42147809E-05
 atomic pseudo charge-density
  0.40000000E+01  0.39933812E+01  0.39736044E+01  0.39409060E+01  0.38956728E+01
  0.38384324E+01  0.37698390E+01  0.36906576E+01  0.36017454E+01  0.35040326E+01
  0.33985017E+01  0.32861682E+01  0.31680613E+01  0.30452063E+01  0.29186086E+01
  0.27892401E+01  0.26580279E+01  0.25258445E+01  0.23935015E+01  0.22617442E+01
  0.21312490E+01  0.20026223E+01  0.18764005E+01  0.17530515E+01  0.16329777E+01
  0.15165186E+01  0.14039549E+01  0.12955125E+01  0.11913673E+01  0.10916487E+01
  0.99644484E+00  0.90580652E+00  0.81975119E+00  0.73826697E+00  0.66131621E+00
  0.58883890E+00  0.52075574E+00  0.45697096E+00  0.39737498E+00  0.34184666E+00
  0.29025548E+00  0.24246339E+00  0.19832654E+00  0.15769677E+00  0.12042298E+00
  0.86352281E-01  0.55331096E-01  0.27206052E-01  0.18248044E-02 -0.20963262E-01
 -0.41306418E-01 -0.59350066E-01 -0.75236292E-01 -0.89103482E-01 -0.10108601E+00
 -0.11131400E+00 -0.11991305E+00 -0.12700418E+00 -0.13270362E+00 -0.13712275E+00
 -0.14036811E+00 -0.14254128E+00 -0.14373900E+00 -0.14405309E+00 -0.14357061E+00
 -0.14237382E+00 -0.14054038E+00 -0.13814334E+00 -0.13525132E+00 -0.13192861E+00
 -0.12823530E+00 -0.12422738E+00 -0.11995694E+00 -0.11547226E+00 -0.11081797E+00
 -0.10603521E+00 -0.10116176E+00 -0.96232200E-01 -0.91278055E-01 -0.86327933E-01
 -0.81407679E-01 -0.76540513E-01 -0.71747174E-01 -0.67046052E-01 -0.62453331E-01
 -0.57983111E-01 -0.53647543E-01 -0.49456949E-01 -0.45419945E-01 -0.41543558E-01
 -0.37833336E-01 -0.34293457E-01 -0.30926839E-01 -0.27735232E-01 -0.24719324E-01
 -0.21878824E-01 -0.19212559E-01 -0.16718553E-01 -0.14394108E-01 -0.12235885E-01
 -0.10239972E-01 -0.84019529E-02 -0.67169771E-02 -0.51798168E-02 -0.37849272E-02
 -0.25264999E-02 -0.13985149E-02 -0.39478785E-03  0.49098518E-03  0.12651863E-02
  0.19342373E-02  0.25045643E-02  0.29825651E-02  0.33745792E-02  0.36868606E-02
  0.39255530E-02  0.40966678E-02  0.42060640E-02  0.42594307E-02  0.42622711E-02
  0.42198898E-02  0.41373809E-02  0.40196182E-02  0.38712475E-02  0.36966806E-02
  0.35000904E-02  0.32854077E-02  0.30563195E-02  0.28162688E-02  0.25684550E-02
  0.23158359E-02  0.20611308E-02  0.18068241E-02  0.15551703E-02  0.13081992E-02
  0.10677228E-02  0.83534162E-03  0.61245267E-03  0.40025712E-03  0.19976894E-03
  0.11823648E-04 -0.16291253E-03 -0.32393332E-03 -0.47088283E-03 -0.60354591E-03
 -0.72183829E-03 -0.82579693E-03 -0.91557012E-03 -0.99140789E-03 -0.10536524E-02
 -0.11027283E-02 -0.11391340E-02 -0.11634320E-02 -0.11762404E-02 -0.11782247E-02
 -0.11700890E-02 -0.11525686E-02 -0.11264224E-02 -0.10924256E-02 -0.10513631E-02
 -0.10040230E-02 -0.95119079E-03 -0.89364377E-03 -0.83214585E-03 -0.76744294E-03
 -0.70025859E-03 -0.63129022E-03 -0.56120564E-03 -0.49064004E-03 -0.42019335E-03
 -0.35042810E-03 -0.28186752E-03 -0.21499411E-03 -0.15024858E-03 -0.88029094E-04
 -0.28690869E-04  0.27453908E-04  0.80135870E-04  0.12912797E-03  0.17424471E-03
  0.21534116E-03  0.25231173E-03  0.28508871E-03  0.31364069E-03  0.33797077E-03
  0.35811461E-03  0.37413844E-03  0.38613686E-03  0.39423065E-03  0.39856443E-03
  0.39930433E-03  0.39663565E-03  0.39076041E-03  0.38189502E-03  0.37026789E-03
  0.35611713E-03  0.33968823E-03  0.32123191E-03  0.30100189E-03  0.27925293E-03
  0.25623878E-03  0.23221039E-03  0.20741411E-03  0.18209008E-03  0.15647074E-03
  0.13077941E-03  0.10522910E-03  0.80021323E-04  0.55345192E-04  0.31376526E-04
  0.82771691E-05 -0.13805588E-04 -0.34739443E-04 -0.54407392E-04 -0.72707909E-04
 -0.89555009E-04 -0.10487819E-03 -0.11862226E-03 -0.13074707E-03 -0.14122714E-03
 -0.15005119E-03 -0.15722160E-03 -0.16275376E-03 -0.16667541E-03 -0.16902585E-03
 -0.16985514E-03 -0.16922327E-03 -0.16719921E-03 -0.16386004E-03 -0.15928998E-03
 -0.15357943E-03 -0.14682402E-03 -0.13912364E-03 -0.13058147E-03 -0.12130306E-03
 -0.11139543E-03 -0.10096610E-03 -0.90122327E-04 -0.78970208E-04 -0.67613936E-04
 -0.56155055E-04 -0.44691775E-04 -0.33318337E-04 -0.22124441E-04 -0.11194723E-04
 -0.60829239E-06  0.95616628E-05  0.19248220E-04  0.28390997E-04  0.36936373E-04
  0.44837639E-04  0.52055104E-04  0.58556129E-04  0.64315113E-04  0.69313424E-04
  0.73539280E-04  0.76987578E-04  0.79659681E-04  0.81563165E-04  0.82711521E-04
  0.83123827E-04  0.82824389E-04  0.81842353E-04  0.80211293E-04  0.77968782E-04
  0.75155948E-04  0.71817014E-04  0.67998836E-04  0.63750434E-04  0.59122521E-04
  0.54167046E-04  0.48936724E-04  0.43484602E-04  0.37863615E-04  0.32126170E-04
  0.26323752E-04  0.20506538E-04  0.14723049E-04  0.90198170E-05  0.34410855E-05
 -0.19714665E-05 -0.71789673E-05 -0.12145566E-04 -0.16838617E-04 -0.21228827E-04
 -0.25290379E-04 -0.29001018E-04 -0.32342108E-04 -0.35298658E-04 -0.37859323E-04
 -0.40016364E-04 -0.41765597E-04 -0.43106301E-04 -0.44041112E-04 -0.44575889E-04
 -0.44719557E-04 -0.44483940E-04 -0.43883561E-04 -0.42935445E-04 -0.41658892E-04
 -0.40075255E-04 -0.38207693E-04 -0.36080931E-04 -0.33721008E-04 -0.31155022E-04
 -0.28410882E-04 -0.25517052E-04 -0.22502306E-04 -0.19395483E-04 -0.16225255E-04
 -0.13019898E-04 -0.98070779E-05 -0.66136429E-05 -0.34654349E-05 -0.38711036E-06
  0.25980219E-05  0.54681474E-05  0.82030759E-05  0.10784355E-04  0.13195366E-04
  0.15421402E-04  0.17449727E-04  0.19269620E-04  0.20872400E-04  0.22251434E-04
  0.23402129E-04  0.24321905E-04  0.25010158E-04  0.25468202E-04  0.25699202E-04
  0.25708094E-04  0.25501489E-04  0.25087569E-04  0.24475975E-04  0.23677685E-04
  0.22704885E-04  0.21570831E-04  0.20289713E-04  0.18876511E-04  0.17346847E-04
  0.15716842E-04  0.14002970E-04  0.12221909E-04  0.10390406E-04  0.85251306E-05
  0.66425483E-05  0.47587876E-05  0.28895198E-05  0.10498439E-05 -0.74582012E-06
 -0.24838294E-05 -0.41514075E-05 -0.57367240E-05 -0.72289641E-05 -0.86183880E-05
 -0.98963799E-05 -0.11055487E-04 -0.12089446E-04 -0.12993204E-04 -0.13762921E-04
 -0.14395972E-04 -0.14890931E-04 -0.15247551E-04 -0.15466731E-04 -0.15550478E-04
 -0.15501863E-04 -0.15324958E-04 -0.15024783E-04 -0.14607236E-04 -0.14079019E-04
 -0.13447561E-04 -0.12720941E-04 -0.11907799E-04 -0.11017252E-04 -0.10058807E-04
 -0.90422717E-05 -0.79776663E-05 -0.68751345E-05 -0.57448580E-05 -0.45969721E-05
 -0.34414833E-05 -0.22881908E-05 -0.11466123E-05 -0.25912848E-07  0.10651605E-05
  0.21183393E-05  0.31258888E-05  0.40806569E-05  0.49761179E-05  0.58064085E-05
  0.65663591E-05  0.72515174E-05  0.78581661E-05  0.83833340E-05  0.88248006E-05
  0.91810947E-05  0.94514867E-05  0.96359752E-05  0.97352679E-05  0.97507571E-05
  0.96844906E-05  0.95391380E-05  0.93179519E-05  0.90247269E-05  0.86637537E-05
  0.82397715E-05  0.77579173E-05  0.72236732E-05  0.66428130E-05  0.60213470E-05
  0.53654664E-05  0.46814882E-05  0.39757998E-05  0.32548049E-05  0.25248705E-05
  0.17922754E-05  0.10631609E-05  0.34348403E-06 -0.36102669E-06 -0.10449128E-05
 -0.17030235E-05 -0.23305507E-05 -0.29230591E-05 -0.34765141E-05 -0.39873042E-05
 -0.44522601E-05 -0.48686701E-05 -0.52342902E-05 -0.55473517E-05 -0.58065628E-05
 -0.60111083E-05 -0.61606438E-05 -0.62552870E-05 -0.62956052E-05 -0.62825998E-05
 -0.62176868E-05 -0.61026753E-05 -0.59397429E-05 -0.57314084E-05 -0.54805032E-05
 -0.51901400E-05 -0.48636807E-05 -0.45047021E-05 -0.41169621E-05 -0.37043635E-05
 -0.32709192E-05 -0.28207163E-05 -0.23578806E-05 -0.18865420E-05 -0.14108005E-05
 -0.93469333E-06 -0.46216321E-06  0.29715793E-08  0.45704551E-06  0.89657220E-06
  0.13182687E-05  0.17190773E-05  0.20961856E-05  0.24470432E-05  0.27693767E-05
  0.30612012E-05  0.33208302E-05  0.35468820E-05  0.37382837E-05  0.38942726E-05
  0.40143953E-05  0.40985038E-05  0.41467494E-05  0.41595745E-05  0.41377021E-05
  0.40821232E-05  0.39940821E-05  0.38750604E-05  0.37267596E-05  0.35510813E-05
  0.33501075E-05  0.31260790E-05  0.28813734E-05  0.26184827E-05  0.23399898E-05
  0.20485456E-05  0.17468455E-05  0.14376065E-05  0.11235444E-05  0.80735163E-06
  0.49167596E-06  0.17909964E-06 -0.12787996E-06 -0.42686886E-06 -0.71559359E-06
 -0.99191695E-06 -0.12538523E-05 -0.14995763E-05 -0.17274401E-05 -0.19359785E-05
 -0.21239179E-05 -0.22901823E-05 -0.24338974E-05 -0.25543930E-05 -0.26512040E-05
 -0.27240695E-05 -0.27729299E-05 -0.27979233E-05 -0.27993793E-05 -0.27778123E-05
 -0.27339131E-05 -0.26685392E-05 -0.25827038E-05 -0.24775645E-05 -0.23544099E-05
 -0.22146471E-05 -0.20597867E-05 -0.18914285E-05 -0.17112468E-05 -0.15209745E-05
 -0.13223882E-05 -0.11172925E-05 -0.90750505E-06 -0.69484101E-06 -0.48109880E-06
 -0.26804567E-06 -0.57404168E-07  0.14916092E-06  0.35005469E-06  0.54376355E-06
  0.72886564E-06  0.90404030E-06  0.10680765E-05  0.12198804E-05  0.13584811E-05
  0.14830364E-05  0.15928364E-05  0.16873063E-05  0.17660082E-05  0.18286414E-05
  0.18750423E-05  0.19051819E-05  0.19191640E-05  0.19172205E-05  0.18997076E-05
  0.18670995E-05  0.18199824E-05  0.17590471E-05  0.16850813E-05  0.15989611E-05
  0.15016419E-05  0.13941491E-05  0.12775682E-05  0.11530350E-05  0.10217250E-05
  0.88484338E-06  0.74361459E-06  0.59927200E-06  0.45304787E-06  0.30616346E-06
  0.15981944E-06  0.15186708E-07 -0.12660237E-06 -0.26446224E-06 -0.39736184E-06
 -0.52433173E-06 -0.64447052E-06 -0.75695067E-06 -0.86102353E-06 -0.95602364E-06
 -0.10413723E-05 -0.11165805E-05 -0.11812505E-05 -0.12350778E-05 -0.12778508E-05
 -0.13094510E-05 -0.13298522E-05 -0.13391180E-05 -0.13374002E-05 -0.13249353E-05
 -0.13020410E-05 -0.12691118E-05 -0.12266145E-05 -0.11750827E-05 -0.11151114E-05
 -0.10473509E-05 -0.97250034E-06 -0.89130135E-06 -0.80453111E-06 -0.71299551E-06
 -0.61752212E-06 -0.51895318E-06 -0.41813862E-06 -0.31592913E-06 -0.21316942E-06
 -0.11069161E-06 -0.93089144E-08  0.90190420E-07  0.18704887E-06  0.28054500E-06
  0.36999845E-06  0.45477448E-06  0.53428807E-06  0.60800757E-06  0.67545778E-06
  0.73622263E-06  0.78994723E-06  0.83633949E-06  0.87517113E-06  0.90627825E-06
  0.92956131E-06  0.94498467E-06  0.95257557E-06  0.95242270E-06  0.94467428E-06
  0.92953570E-06  0.90726682E-06  0.87817884E-06  0.84263085E-06  0.80102606E-06
  0.75380780E-06  0.70145523E-06  0.64447892E-06  0.58341618E-06  0.51882641E-06
  0.45128621E-06  0.38138458E-06  0.30971804E-06  0.23688583E-06  0.16348517E-06
  0.90106621E-07  0.17329570E-07 -0.54282054E-07 -0.12418392E-06 -0.19185516E-06
 -0.25680203E-06 -0.31856121E-06 -0.37670289E-06 -0.43083349E-06 -0.48059805E-06
 -0.52568227E-06 -0.56581424E-06 -0.60076574E-06 -0.63035327E-06 -0.65443857E-06
 -0.67292895E-06 -0.68577717E-06 -0.69298092E-06 -0.69458211E-06 -0.69066568E-06
 -0.68135819E-06 -0.66682610E-06 -0.64727375E-06 -0.62294108E-06 -0.59410120E-06
 -0.56105759E-06 -0.52414131E-06 -0.48370786E-06 -0.44013407E-06 -0.39381473E-06
 -0.34515931E-06 -0.29458845E-06 -0.24253059E-06 -0.18941844E-06 -0.13568562E-06
 -0.81763284E-07 -0.28076796E-07  0.24957425E-07  0.76934985E-07  0.12746643E-06
  0.17618000E-06  0.22272422E-06  0.26677024E-06  0.30801402E-06  0.34617826E-06
  0.38101408E-06  0.41230252E-06  0.43985565E-06  0.46351760E-06  0.48316518E-06
  0.49870833E-06  0.51009027E-06  0.51728739E-06  0.52030890E-06  0.51919627E-06
  0.51402235E-06  0.50489035E-06  0.49193253E-06  0.47530877E-06  0.45520488E-06
  0.43183076E-06  0.40541844E-06  0.37621993E-06  0.34450499E-06  0.31055877E-06
  0.27467941E-06  0.23717551E-06  0.19836366E-06  0.15856581E-06  0.11810680E-06
  0.77311735E-07  0.36503570E-07 -0.39994036E-08 -0.43885904E-07 -0.82853956E-07
 -0.12061307E-06 -0.15688631E-06 -0.19141223E-06 -0.22394663E-06 -0.25426423E-06
 -0.28216010E-06 -0.30745093E-06 -0.32997619E-06 -0.34959896E-06 -0.36620674E-06
 -0.37971190E-06 -0.39005205E-06 -0.39719016E-06 -0.40111449E-06 -0.40183833E-06
 -0.39939957E-06 -0.39386009E-06 -0.38530492E-06 -0.37384131E-06 -0.35959759E-06
 -0.34272191E-06 -0.32338085E-06 -0.30175788E-06 -0.27805173E-06 -0.25247468E-06
 -0.22525073E-06 -0.19661373E-06 -0.16680549E-06 -0.13607374E-06 -0.10467024E-06
 -0.72848722E-07 -0.40862954E-07 -0.89647590E-08  0.22597883E-07  0.53582706E-07
  0.83754947E-07  0.11288907E-06  0.14077037E-06  0.16719655E-06  0.19197904E-06
  0.21494438E-06  0.23593532E-06  0.25481184E-06  0.27145206E-06  0.28575293E-06
  0.29763082E-06  0.30702193E-06  0.31388258E-06  0.31818927E-06  0.31993865E-06
  0.31914732E-06  0.31585146E-06  0.31010633E-06  0.30198565E-06  0.29158076E-06
  0.27899980E-06  0.26436660E-06  0.24781961E-06  0.22951062E-06  0.20960348E-06
  0.18827264E-06  0.16570174E-06  0.14208206E-06  0.11761092E-06  0.92490151E-07
  0.66924420E-07  0.41119635E-07  0.15281331E-07 -0.10386931E-07 -0.35685121E-07
 -0.60418262E-07 -0.84397894E-07 -0.10744347E-06 -0.12938369E-06 -0.15005773E-06
 -0.16931639E-06 -0.18702314E-06 -0.20305506E-06 -0.21730364E-06 -0.22967552E-06
 -0.24009302E-06 -0.24849464E-06 -0.25483533E-06 -0.25908669E-06 -0.26123707E-06
 -0.26129144E-06 -0.25927119E-06 -0.25521387E-06 -0.24917263E-06 -0.24121576E-06
 -0.23142592E-06 -0.21989940E-06 -0.20674523E-06 -0.19208417E-06 -0.17604771E-06
 -0.15877686E-06 -0.14042101E-06 -0.12113664E-06 -0.10108604E-06 -0.80435990E-07
 -0.59356360E-07 -0.38018791E-07 -0.16595301E-07  0.47430663E-08  0.25827586E-07
  0.46493158E-07  0.66579577E-07  0.85932756E-07  0.10440588E-06  0.12186051E-06
  0.13816759E-06  0.15320840E-06  0.16687536E-06  0.17907284E-06  0.18971776E-06
  0.19874017E-06  0.20608367E-06  0.21170572E-06  0.21557788E-06  0.21768590E-06
  0.21802972E-06  0.21662332E-06  0.21349449E-06  0.20868451E-06  0.20224767E-06
  0.19425077E-06  0.18477241E-06  0.17390234E-06  0.16174059E-06  0.14839660E-06
  0.13398828E-06  0.11864097E-06  0.10248642E-06  0.85661613E-07  0.68307706E-07
  0.50568809E-07  0.32590836E-07  0.14520314E-07 -0.34967917E-08 -0.21316238E-07
 -0.38796647E-07 -0.55800608E-07 -0.72195748E-07 -0.87855750E-07 -0.10266131E-06
 -0.11650103E-06 -0.12927226E-06 -0.14088182E-06 -0.15124671E-06 -0.16029464E-06
 -0.16796456E-06 -0.17420703E-06 -0.17898454E-06 -0.18227170E-06 -0.18405535E-06
 -0.18433455E-06 -0.18312048E-06 -0.18043630E-06 -0.17631679E-06 -0.17080803E-06
 -0.16396690E-06 -0.15586055E-06 -0.14656578E-06 -0.13616831E-06 -0.12476204E-06
 -0.11244821E-06 -0.99334549E-07 -0.85534307E-07 -0.71165330E-07 -0.56349053E-07
 -0.41209496E-07 -0.25872232E-07 -0.10463365E-07  0.48914967E-08  0.20068257E-07
  0.34945320E-07  0.49404556E-07  0.63332233E-07  0.76619896E-07  0.89165209E-07
  0.10087273E-06  0.11165464E-06  0.12143138E-06  0.13013222E-06  0.13769579E-06
  0.14407048E-06  0.14921479E-06  0.15309758E-06  0.15569822E-06  0.15700670E-06
  0.15702363E-06  0.15576009E-06  0.15323754E-06  0.14948748E-06  0.14455117E-06
  0.13847916E-06  0.13133086E-06  0.12317394E-06  0.11408372E-06  0.10414250E-06
  0.93438840E-07  0.82066754E-07  0.70124930E-07  0.57715869E-07  0.44945023E-07
  0.31919905E-07  0.18749198E-07  0.55418532E-08 -0.75938012E-08 -0.20550940E-07
 -0.33225104E-07 -0.45515032E-07 -0.57323467E-07 -0.68557917E-07 -0.79131372E-07
 -0.88962974E-07 -0.97978624E-07 -0.10611154E-06 -0.11330273E-06 -0.11950143E-06
 -0.12466545E-06 -0.12876142E-06 -0.13176502E-06 -0.13366111E-06 -0.13444374E-06
 -0.13411617E-06 -0.13269073E-06 -0.13018867E-06 -0.12663987E-06 -0.12208258E-06
 -0.11656299E-06 -0.11013481E-06 -0.10285875E-06 -0.94801978E-07 -0.86037497E-07
 -0.76643508E-07 -0.66702717E-07 -0.56301620E-07 -0.45529761E-07 -0.34478966E-07
 -0.23242568E-07 -0.11914630E-07 -0.58916097E-09  0.10640657E-07  0.21683229E-07
  0.32449288E-07  0.42852613E-07  0.52810710E-07  0.62245464E-07  0.71083745E-07
  0.79257966E-07  0.86706599E-07  0.93374625E-07  0.99213938E-07  0.10418368E-06
  0.10825051E-06  0.11138884E-06  0.11358094E-06  0.11481707E-06  0.11509542E-06
  0.11442215E-06  0.11281118E-06  0.11028407E-06  0.10686975E-06  0.10260423E-06
  0.97530235E-07  0.91696783E-07  0.85158751E-07  0.77976355E-07  0.70214608E-07
  0.61942744E-07  0.53233606E-07  0.44163014E-07  0.34809113E-07  0.25251704E-07
  0.15571572E-07  0.58498071E-08 -0.38328688E-08 -0.13396767E-07 -0.22763881E-07
 -0.31858522E-07 -0.40607920E-07 -0.48942806E-07 -0.56797952E-07 -0.64112675E-07
 -0.70831305E-07 -0.76903598E-07 -0.82285105E-07 -0.86937492E-07 -0.90828802E-07
 -0.93933665E-07 -0.96233450E-07 -0.97716357E-07 -0.98377463E-07 -0.98218691E-07
 -0.97248743E-07 -0.95482964E-07 -0.92943154E-07 -0.89657334E-07 -0.85659456E-07
   12.0942463269051      T
 Non local Part
           0           2   1.67088588010670     
   6.47656285167015        6.40861474868394        6.40861474868394     
   6.34069138706468     
 Reciprocal Space Part
 -0.13511139E+03 -0.13426583E+03 -0.13174185E+03 -0.12757738E+03 -0.12183484E+03
 -0.11460009E+03 -0.10598084E+03 -0.96104779E+02 -0.85117287E+02 -0.73178892E+02
 -0.60462452E+02 -0.47150162E+02 -0.33430412E+02 -0.19494580E+02 -0.55338197E+01
  0.82641147E+01  0.21717917E+02  0.34655616E+02  0.46917245E+02  0.58357231E+02
  0.68846487E+02  0.78274150E+02  0.86548956E+02  0.93600216E+02  0.99378403E+02
  0.10385533E+03  0.10702394E+03  0.10889770E+03  0.10950966E+03  0.10891117E+03
  0.10717028E+03  0.10436993E+03  0.10060590E+03  0.95984585E+02  0.90620697E+02
  0.84634859E+02  0.78151211E+02  0.71295040E+02  0.64190498E+02  0.56958432E+02
  0.49714392E+02  0.42566820E+02  0.35615472E+02  0.28950089E+02  0.22649326E+02
  0.16779962E+02  0.11396377E+02  0.65403151E+01  0.22409101E+01 -0.14850387E+01
 -0.46325524E+01 -0.72077498E+01 -0.92269394E+01 -0.10715557E+02 -0.11706980E+02
 -0.12241250E+02 -0.12363740E+02 -0.12123796E+02 -0.11573387E+02 -0.10765787E+02
 -0.97543261E+01 -0.85912306E+01 -0.73265675E+01 -0.60073193E+01 -0.46765974E+01
 -0.33730042E+01 -0.21301495E+01 -0.97632110E+00  0.65692133E-01  0.97863152E+00
  0.17506637E+01  0.23751515E+01  0.28503161E+01  0.31788048E+01  0.33671853E+01
  0.34253808E+01  0.33660688E+01  0.32040582E+01  0.29556655E+01  0.26381040E+01
  0.22689035E+01  0.18653712E+01  0.14441071E+01  0.10205819E+01  0.60878382E+00
  0.22093907E+00 -0.13269190E+00 -0.44394331E+00 -0.70679989E+00 -0.91738398E+00
 -0.10738799E+01 -0.11764026E+01 -0.12268189E+01 -0.12285305E+01 -0.11862282E+01
 -0.11056268E+01 -0.99319044E+00 -0.85585746E+00 -0.70077292E+00 -0.53503697E+00
 Real Space Part
  0.14837725E+03  0.14829132E+03  0.14803367E+03  0.14760470E+03  0.14700511E+03
  0.14623583E+03  0.14529812E+03  0.14419345E+03  0.14292361E+03  0.14149062E+03
  0.13989680E+03  0.13814469E+03  0.13623714E+03  0.13417722E+03  0.13196829E+03
  0.12961393E+03  0.12711802E+03  0.12448463E+03  0.12171813E+03  0.11882310E+03
  0.11580438E+03  0.11266703E+03  0.10941638E+03  0.10605795E+03  0.10259751E+03
  0.99041071E+02  0.95394849E+02  0.91665289E+02  0.87859054E+02  0.83983025E+02
  0.80044294E+02  0.76050165E+02  0.72008146E+02  0.67925951E+02  0.63811490E+02
  0.59672869E+02  0.55518379E+02  0.51356498E+02  0.47195876E+02  0.43045330E+02
  0.38913834E+02  0.34810510E+02  0.30744611E+02  0.26725505E+02  0.22762665E+02
  0.18865640E+02  0.15044037E+02  0.11307492E+02  0.76656436E+01  0.41280956E+01
  0.70438157E+00 -0.25960775E+01 -0.57640200E+01 -0.87903941E+01 -0.11666414E+02
 -0.14383619E+02 -0.16933941E+02 -0.19309772E+02 -0.21504035E+02 -0.23510268E+02
 -0.25322694E+02 -0.26936313E+02 -0.28346977E+02 -0.29551476E+02 -0.30547622E+02
 -0.31334321E+02 -0.31911656E+02 -0.32280945E+02 -0.32444810E+02 -0.32407218E+02
 -0.32173524E+02 -0.31750491E+02 -0.31146300E+02 -0.30370536E+02 -0.29434160E+02
 -0.28349465E+02 -0.27129997E+02 -0.25790472E+02 -0.24346663E+02 -0.22815267E+02
 -0.21213754E+02 -0.19560206E+02 -0.17873129E+02 -0.16171264E+02 -0.14473381E+02
 -0.12798077E+02 -0.11163559E+02 -0.95874412E+01 -0.80865421E+01 -0.66766890E+01
 -0.53725389E+01 -0.41874132E+01 -0.31331452E+01 -0.22199598E+01 -0.14563566E+01
 -0.84905218E+00 -0.40290121E+00 -0.12015880E+00 -0.58513321E-02  0.00000000E+00
 Reciprocal Space Part
  0.14685040E+03  0.14597056E+03  0.14334419E+03  0.13901045E+03  0.13303387E+03
  0.12550315E+03  0.11652962E+03  0.10624522E+03  0.94800235E+02  0.82360609E+02
  0.69105070E+02  0.55222031E+02  0.40906359E+02  0.26356071E+02  0.11769010E+02
 -0.26604168E+01 -0.16744392E+02 -0.30304665E+02 -0.43175304E+02 -0.55205172E+02
 -0.66260082E+02 -0.76224601E+02 -0.85003471E+02 -0.92522629E+02 -0.98729815E+02
 -0.10359477E+03 -0.10710903E+03 -0.10928531E+03 -0.11015655E+03 -0.10977457E+03
 -0.10820851E+03 -0.10554287E+03 -0.10187551E+03 -0.97315274E+02 -0.91979695E+02
 -0.85992485E+02 -0.79481089E+02 -0.72574240E+02 -0.65399611E+02 -0.58081582E+02
 -0.50739178E+02 -0.43484210E+02 -0.36419643E+02 -0.29638219E+02 -0.23221347E+02
 -0.17238280E+02 -0.11745577E+02 -0.67868385E+01 -0.23927275E+01  0.14187560E+01
  0.46417574E+01  0.72818335E+01  0.93550274E+01  0.10886785E+02  0.11910742E+02
  0.12467420E+02  0.12602861E+02  0.12367233E+02  0.11813449E+02  0.10995816E+02
  0.99687519E+01  0.87855905E+01  0.74975023E+01  0.61525395E+01  0.47948267E+01
  0.34639022E+01  0.21942185E+01  0.10147999E+01 -0.50943210E-01 -0.98525072E+00
 -0.17759097E+01 -0.24160235E+01 -0.29036689E+01 -0.32414573E+01 -0.34360182E+01
 -0.34974240E+01 -0.34385751E+01 -0.32745641E+01 -0.30220371E+01 -0.26985695E+01
 -0.23220708E+01 -0.19102333E+01 -0.14800353E+01 -0.10473074E+01 -0.62637104E+00
 -0.22975049E+00  0.13203661E+00  0.45061240E+00  0.71979716E+00  0.93559724E+00
  0.10961287E+01  0.12014837E+01  0.12535486E+01  0.12557824E+01  0.12129657E+01
  0.11309300E+01  0.10162765E+01  0.87609489E+00  0.71768973E+00  0.54832256E+00
 Real Space Part
 -0.14852363E+03 -0.14843676E+03 -0.14817631E+03 -0.14774268E+03 -0.14713657E+03
 -0.14635895E+03 -0.14541106E+03 -0.14429442E+03 -0.14301083E+03 -0.14156235E+03
 -0.13995131E+03 -0.13818032E+03 -0.13625223E+03 -0.13417019E+03 -0.13193757E+03
 -0.12955804E+03 -0.12703549E+03 -0.12437408E+03 -0.12157823E+03 -0.11865259E+03
 -0.11560205E+03 -0.11243176E+03 -0.10914710E+03 -0.10575369E+03 -0.10225739E+03
 -0.98664260E+02 -0.94980627E+02 -0.91213020E+02 -0.87368197E+02 -0.83453134E+02
 -0.79475025E+02 -0.75441275E+02 -0.71359501E+02 -0.67237522E+02 -0.63083363E+02
 -0.58905244E+02 -0.54711575E+02 -0.50510953E+02 -0.46312152E+02 -0.42124115E+02
 -0.37955946E+02 -0.33816895E+02 -0.29716348E+02 -0.25663809E+02 -0.21668885E+02
 -0.17741261E+02 -0.13890682E+02 -0.10126923E+02 -0.64597570E+01 -0.28989253E+01
  0.54590466E+00  0.38651802E+01  0.70495112E+01  0.10089722E+02  0.12976907E+02
  0.15702496E+02  0.18258314E+02  0.20636657E+02  0.22830366E+02  0.24832901E+02
  0.26638429E+02  0.28241902E+02  0.29639144E+02  0.30826932E+02  0.31803086E+02
  0.32566542E+02  0.33117430E+02  0.33457143E+02  0.33588399E+02  0.33515286E+02
  0.33243307E+02  0.32779397E+02  0.32131933E+02  0.31310724E+02  0.30326977E+02
  0.29193253E+02  0.27923392E+02  0.26532416E+02  0.25036428E+02  0.23452463E+02
  0.21798346E+02  0.20092517E+02  0.18353846E+02  0.16601437E+02  0.14854421E+02
  0.13131744E+02  0.11451954E+02  0.98329877E+01  0.82919671E+01  0.68449986E+01
  0.55069912E+01  0.42914879E+01  0.32105109E+01  0.22744386E+01  0.14918871E+01
  0.86965105E+00  0.41262418E+00  0.12304392E+00  0.59912079E-02  0.00000000E+00
 Non local Part
           1           2   1.67088588010670     
   1.62726935806772        1.92986945942811        1.92986945942811     
   2.29140268122372     
 Reciprocal Space Part
  0.00000000E+00 -0.84419222E+01 -0.16668569E+02 -0.24469131E+02 -0.31641636E+02
 -0.37997122E+02 -0.43363541E+02 -0.47589287E+02 -0.50546287E+02 -0.52132588E+02
 -0.52274388E+02 -0.50927454E+02 -0.48077931E+02 -0.43742495E+02 -0.37967873E+02
 -0.30829736E+02 -0.22431005E+02 -0.12899590E+02 -0.23856400E+01  0.89416407E+01
  0.20897545E+02  0.33285688E+02  0.45902030E+02  0.58539005E+02  0.70989661E+02
  0.83051729E+02  0.94531529E+02  0.10524764E+03  0.11503423E+03  0.12374405E+03
  0.13125096E+03  0.13745191E+03  0.14226858E+03  0.14564823E+03  0.14756425E+03
  0.14801597E+03  0.14702807E+03  0.14464940E+03  0.14095140E+03  0.13602607E+03
  0.12998355E+03  0.12294948E+03  0.11506205E+03  0.10646890E+03  0.97323982E+02
  0.87784360E+02  0.78007040E+02  0.68145972E+02  0.58349200E+02  0.48756252E+02
  0.39495823E+02  0.30683772E+02  0.22421484E+02  0.14794603E+02  0.78721601E+01
  0.17060926E+01 -0.36688489E+01 -0.82348218E+01 -0.11990265E+02 -0.14948951E+02
 -0.17138762E+02 -0.18600217E+02 -0.19384813E+02 -0.19553209E+02 -0.19173328E+02
 -0.18318391E+02 -0.17064966E+02 -0.15491056E+02 -0.13674276E+02 -0.11690158E+02
 -0.96106113E+01 -0.75025738E+01 -0.54268694E+01 -0.34372903E+01 -0.15799101E+01
  0.10736682E+00  0.15950251E+01  0.28619366E+01  0.38951496E+01  0.46894904E+01
  0.52469971E+01  0.55762137E+01  0.56913700E+01  0.56114779E+01  0.53593725E+01
  0.49607282E+01  0.44430760E+01  0.38348505E+01  0.31644880E+01  0.24595984E+01
  0.17462275E+01  0.10482232E+01  0.38671726E+00 -0.22027319E+00 -0.75812005E+00
 -0.12157370E+01 -0.15856147E+01 -0.18637457E+01 -0.20494506E+01 -0.21451157E+01
 Real Space Part
  0.00000000E+00  0.75199638E+01  0.15018759E+02  0.22475269E+02  0.29868475E+02
  0.37177511E+02  0.44381709E+02  0.51460655E+02  0.58394233E+02  0.65162678E+02
  0.71746625E+02  0.78127158E+02  0.84285860E+02  0.90204861E+02  0.95866890E+02
  0.10125532E+03  0.10635421E+03  0.11114838E+03  0.11562342E+03  0.11976577E+03
  0.12356276E+03  0.12700262E+03  0.13007460E+03  0.13276896E+03  0.13507702E+03
  0.13699123E+03  0.13850520E+03  0.13961373E+03  0.14031289E+03  0.14060004E+03
  0.14047385E+03  0.13993440E+03  0.13898314E+03  0.13762301E+03  0.13585840E+03
  0.13369524E+03  0.13114100E+03  0.12820472E+03  0.12489703E+03  0.12123019E+03
  0.11721807E+03  0.11287621E+03  0.10822174E+03  0.10327345E+03  0.98051752E+02
  0.92578627E+02  0.86877630E+02  0.80973825E+02  0.74893730E+02  0.68665245E+02
  0.62317565E+02  0.55881075E+02  0.49387230E+02  0.42868415E+02  0.36357789E+02
  0.29889104E+02  0.23496510E+02  0.17214331E+02  0.11076830E+02  0.51179485E+01
 -0.62896971E+00 -0.61314758E+01 -0.11358324E+02 -0.16279791E+02 -0.20868013E+02
 -0.25097312E+02 -0.28944537E+02 -0.32389391E+02 -0.35414751E+02 -0.38006967E+02
 -0.40156136E+02 -0.41856356E+02 -0.43105924E+02 -0.43907498E+02 -0.44268214E+02
 -0.44199741E+02 -0.43718263E+02 -0.42844413E+02 -0.41603141E+02 -0.40023484E+02
 -0.38138307E+02 -0.35983954E+02 -0.33599834E+02 -0.31027980E+02 -0.28312514E+02
 -0.25499128E+02 -0.22634472E+02 -0.19765581E+02 -0.16939250E+02 -0.14201439E+02
 -0.11596675E+02 -0.91674895E+01 -0.69538815E+01 -0.49928363E+01 -0.33178676E+01
 -0.19587091E+01 -0.94093487E+00 -0.28375171E+00 -0.15655853E-01  0.00000000E+00
 Reciprocal Space Part
  0.00000000E+00  0.76910769E+01  0.15195096E+02  0.22328840E+02  0.28916698E+02
  0.34794256E+02  0.39811652E+02  0.43836622E+02  0.46757163E+02  0.48483765E+02
  0.48951161E+02  0.48119568E+02  0.45975388E+02  0.42531353E+02  0.37826130E+02
  0.31923388E+02  0.24910348E+02  0.16895867E+02  0.80080836E+01 -0.16083011E+01
 -0.11795062E+02 -0.22383725E+02 -0.33199016E+02 -0.44062396E+02 -0.54795614E+02
 -0.65224207E+02 -0.75180847E+02 -0.84508504E+02 -0.93063322E+02 -0.10071718E+03
 -0.10735990E+03 -0.11290095E+03 -0.11727088E+03 -0.12042209E+03 -0.12232929E+03
 -0.12298942E+03 -0.12242110E+03 -0.12066372E+03 -0.11777607E+03 -0.11383463E+03
 -0.10893157E+03 -0.10317242E+03 -0.96673638E+02 -0.89559976E+02 -0.81961763E+02
 -0.74012187E+02 -0.65844623E+02 -0.57590037E+02 -0.49374563E+02 -0.41317267E+02
 -0.33528152E+02 -0.26106442E+02 -0.19139167E+02 -0.12700062E+02 -0.68488138E+01
 -0.16306218E+01  0.29238939E+01  0.67984772E+01  0.99907195E+01  0.12511272E+02
  0.14382815E+02  0.15638825E+02  0.16322171E+02  0.16483581E+02  0.16180033E+02
  0.15473095E+02  0.14427261E+02  0.13108336E+02  0.11581879E+02  0.99117621E+01
  0.81588603E+01  0.63798989E+01  0.46264767E+01  0.29442797E+01  0.13724902E+01
 -0.56604037E-01 -0.13178043E+01 -0.23930069E+01 -0.32710326E+01 -0.39472942E+01
 -0.44233238E+01 -0.47061779E+01 -0.48077477E+01 -0.47439951E+01 -0.45341431E+01
 -0.41998426E+01 -0.37643404E+01 -0.32516715E+01 -0.26858937E+01 -0.20903846E+01
 -0.14872142E+01 -0.89660666E+00 -0.33649750E+00  0.17780575E+00  0.63385912E+00
  0.10222141E+01  0.13364499E+01  0.15731123E+01  0.17315680E+01  0.18137847E+01
 Real Space Part
  0.00000000E+00 -0.62472474E+01 -0.12476802E+02 -0.18671012E+02 -0.24812312E+02
 -0.30883259E+02 -0.36866582E+02 -0.42745217E+02 -0.48502353E+02 -0.54121471E+02
 -0.59586388E+02 -0.64881298E+02 -0.69990810E+02 -0.74899994E+02 -0.79594420E+02
 -0.84060196E+02 -0.88284014E+02 -0.92253186E+02 -0.95955687E+02 -0.99380191E+02
 -0.10251612E+03 -0.10535366E+03 -0.10788385E+03 -0.11009856E+03 -0.11199056E+03
 -0.11355356E+03 -0.11478226E+03 -0.11567234E+03 -0.11622056E+03 -0.11642474E+03
 -0.11628382E+03 -0.11579789E+03 -0.11496825E+03 -0.11379738E+03 -0.11228902E+03
 -0.11044820E+03 -0.10828121E+03 -0.10579568E+03 -0.10300060E+03 -0.99906267E+02
 -0.96524385E+02 -0.92868011E+02 -0.88951579E+02 -0.84790891E+02 -0.80403103E+02
 -0.75806710E+02 -0.71021509E+02 -0.66068568E+02 -0.60970172E+02 -0.55749764E+02
 -0.50431868E+02 -0.45042009E+02 -0.39606601E+02 -0.34152840E+02 -0.28708559E+02
 -0.23302090E+02 -0.17962088E+02 -0.12717349E+02 -0.75966098E+01 -0.26283268E+01
  0.21595545E+01  0.67398499E+01  0.11086396E+02  0.15174323E+02  0.18980330E+02
  0.22482967E+02  0.25662922E+02  0.28503290E+02  0.30989846E+02  0.33111295E+02
  0.34859507E+02  0.36229720E+02  0.37220713E+02  0.37834941E+02  0.38078628E+02
  0.37961817E+02  0.37498351E+02  0.36705814E+02  0.35605420E+02  0.34221822E+02
  0.32582882E+02  0.30719385E+02  0.28664684E+02  0.26454329E+02  0.24125615E+02
  0.21717139E+02  0.19268291E+02  0.16818767E+02  0.14408040E+02  0.12074861E+02
  0.98567529E+01  0.77895402E+01  0.59068930E+01  0.42399237E+01  0.28168024E+01
  0.16624969E+01  0.79845490E+00  0.24073355E+00  0.13275647E-01  0.00000000E+00
 Non local Part
           2           1   1.67088588010670     
   7.22170746462586     
 Reciprocal Space Part
  0.00000000E+00  0.37807189E-01  0.15056805E+00  0.33631299E+00  0.59180082E+00
  0.91258008E+00  0.12930731E+01  0.17266808E+01  0.22059071E+01  0.27224980E+01
  0.32675961E+01  0.38319034E+01  0.44058521E+01  0.49797786E+01  0.55440973E+01
  0.60894709E+01  0.66069740E+01  0.70882461E+01  0.75256327E+01  0.79123097E+01
  0.82423907E+01  0.85110144E+01  0.87144112E+01  0.88499472E+01  0.89161466E+01
  0.89126910E+01  0.88403973E+01  0.87011739E+01  0.84979585E+01  0.82346363E+01
  0.79159444E+01  0.75473609E+01  0.71349845E+01  0.66854054E+01  0.62055712E+01
  0.57026501E+01  0.51838954E+01  0.46565120E+01  0.41275303E+01  0.36036869E+01
  0.30913168E+01  0.25962570E+01  0.21237644E+01  0.16784488E+01  0.12642207E+01
  0.88425605E+00  0.54097721E+00  0.23604930E+00 -0.29607734E-01 -0.25579294E+00
 -0.44298497E+00 -0.59229114E+00 -0.70538640E+00 -0.78444426E+00 -0.83206133E+00
 -0.85117763E+00 -0.84499455E+00 -0.81689236E+00 -0.77034923E+00 -0.70886331E+00
 -0.63587956E+00 -0.55472263E+00 -0.46853700E+00 -0.38023517E+00 -0.29245482E+00
 -0.20752508E+00 -0.12744238E+00 -0.53855586E-01  0.11939592E-01  0.68997657E-01
  0.11671230E+00  0.15479822E+00  0.18326665E+00  0.20239575E+00  0.21269680E+00
  0.21487748E+00  0.20980328E+00  0.19845821E+00  0.18190587E+00  0.16125174E+00
  0.13760778E+00  0.11205990E+00  0.85639068E-01  0.59296490E-01  0.33883222E-01
  0.10134435E-01 -0.11341611E-01 -0.30069949E-01 -0.45710830E-01 -0.58057496E-01
 -0.67030186E-01 -0.72666864E-01 -0.75111186E-01 -0.74598285E-01 -0.71438971E-01
 -0.66002939E-01 -0.58701566E-01 -0.49970859E-01 -0.40255053E-01 -0.29991313E-01
 Real Space Part
  0.00000000E+00  0.22638563E-02  0.90521115E-02  0.20354813E-01  0.36155334E-01
  0.56430319E-01  0.81149603E-01  0.11027611E+00  0.14376572E+00  0.18156716E+00
  0.22362178E+00  0.26986344E+00  0.32021824E+00  0.37460436E+00  0.43293178E+00
  0.49510206E+00  0.56100804E+00  0.63053363E+00  0.70355346E+00  0.77993262E+00
  0.85952637E+00  0.94217983E+00  0.10277277E+01  0.11159940E+01  0.12067916E+01
  0.12999223E+01  0.13951762E+01  0.14923318E+01  0.15911555E+01  0.16914016E+01
  0.17928122E+01  0.18951168E+01  0.19980328E+01  0.21012650E+01  0.22045060E+01
  0.23074361E+01  0.24097240E+01  0.25110265E+01  0.26109896E+01  0.27092486E+01
  0.28054291E+01  0.28991477E+01  0.29900129E+01  0.30776265E+01  0.31615847E+01
  0.32414799E+01  0.33169019E+01  0.33874405E+01  0.34526871E+01  0.35122373E+01
  0.35656935E+01  0.36126677E+01  0.36527843E+01  0.36856837E+01  0.37110255E+01
  0.37284924E+01  0.37377937E+01  0.37386696E+01  0.37308948E+01  0.37142831E+01
  0.36886913E+01  0.36540233E+01  0.36102339E+01  0.35573327E+01  0.34953878E+01
  0.34245285E+01  0.33449484E+01  0.32569071E+01  0.31607324E+01  0.30568205E+01
  0.29456364E+01  0.28277128E+01  0.27036487E+01  0.25741064E+01  0.24398080E+01
  0.23015306E+01  0.21601005E+01  0.20163868E+01  0.18712938E+01  0.17257528E+01
  0.15807131E+01  0.14371328E+01  0.12959686E+01  0.11581663E+01  0.10246503E+01
  0.89631413E+00  0.77401095E+00  0.65854445E+00  0.55066084E+00  0.45104126E+00
  0.36029548E+00  0.27895663E+00  0.20747667E+00  0.14622387E+00  0.95480239E-01
  0.55442720E-01  0.26222264E-01  0.77989524E-02  0.38631488E-03  0.00000000E+00
 PAW radial sets
         353   1.49078617801349     
(5E20.12)                                
 augmentation charges (non sperical)
 -0.546610524451E+00 -0.532285250199E+00 -0.229282336048E+00 -0.269420242233E+00 -0.151222492372E+00
 -0.532285250199E+00 -0.518473766026E+00 -0.224519316724E+00 -0.263917146389E+00 -0.148811801612E+00
 -0.229282336048E+00 -0.224519316724E+00 -0.103174978187E+00 -0.121819449683E+00 -0.520461902802E-01
 -0.269420242233E+00 -0.263917146389E+00 -0.121819449683E+00 -0.143887288358E+00 -0.610373101551E-01
 -0.151222492372E+00 -0.148811801612E+00 -0.520461902802E-01 -0.610373101551E-01  0.821420101857E-01
 uccopancies in atom
  0.200000000018E+01  0.000000000000E+00  0.000000000000E+00  0.000000000000E+00  0.000000000000E+00
  0.000000000000E+00  0.000000000000E+00  0.000000000000E+00  0.000000000000E+00  0.000000000000E+00
  0.000000000000E+00  0.000000000000E+00  0.666666667138E+00  0.000000000000E+00  0.000000000000E+00
  0.000000000000E+00  0.000000000000E+00  0.000000000000E+00  0.000000000000E+00  0.000000000000E+00
  0.000000000000E+00  0.000000000000E+00  0.000000000000E+00  0.000000000000E+00  0.000000000000E+00
 grid
  0.687732028097E-04  0.710095357969E-04  0.733185887539E-04  0.757027263526E-04  0.781643901584E-04
  0.807061011301E-04  0.833304622017E-04  0.860401609484E-04  0.888379723385E-04  0.917267615753E-04
  0.947094870315E-04  0.977892032785E-04  0.100969064215E-03  0.104252326296E-03  0.107642351870E-03
  0.111142612618E-03  0.114756693113E-03  0.118488294490E-03  0.122341238235E-03  0.126319470098E-03
  0.130427064137E-03  0.134668226887E-03  0.139047301669E-03  0.143568773039E-03  0.148237271378E-03
  0.153057577636E-03  0.158034628229E-03  0.163173520091E-03  0.168479515896E-03  0.173958049448E-03
  0.179614731244E-03  0.185455354220E-03  0.191485899685E-03  0.197712543444E-03  0.204141662124E-03
  0.210779839705E-03  0.217633874261E-03  0.224710784922E-03  0.232017819063E-03  0.239562459725E-03
  0.247352433280E-03  0.255395717341E-03  0.263700548935E-03  0.272275432934E-03  0.281129150769E-03
  0.290270769420E-03  0.299709650705E-03  0.309455460862E-03  0.319518180452E-03  0.329908114580E-03
  0.340635903446E-03  0.351712533243E-03  0.363149347409E-03  0.374958058240E-03  0.387150758888E-03
  0.399739935744E-03  0.412738481225E-03  0.426159706978E-03  0.440017357510E-03  0.454325624267E-03
  0.469099160165E-03  0.484353094594E-03  0.500103048917E-03  0.516365152463E-03  0.533156059048E-03
  0.550492964027E-03  0.568393621905E-03  0.586876364520E-03  0.605960119817E-03  0.625664431228E-03
  0.646009477690E-03  0.667016094308E-03  0.688705793693E-03  0.711100787993E-03  0.734224011639E-03
  0.758099144833E-03  0.782750637796E-03  0.808203735814E-03  0.834484505081E-03  0.861619859402E-03
  0.889637587751E-03  0.918566382730E-03  0.948435869953E-03  0.979276638386E-03  0.101112027167E-02
  0.104399938047E-02  0.107794763586E-02  0.111299980383E-02  0.114919178085E-02  0.118656063069E-02
  0.122514462229E-02  0.126498326904E-02  0.130611736921E-02  0.134858904769E-02  0.139244179920E-02
  0.143772053279E-02  0.148447161784E-02  0.153274293155E-02  0.158258390796E-02  0.163404558858E-02
  0.168718067468E-02  0.174204358122E-02  0.179869049261E-02  0.185717942025E-02  0.191757026190E-02
  0.197992486306E-02  0.204430708030E-02  0.211078284663E-02  0.217942023905E-02  0.225028954823E-02
  0.232346335055E-02  0.239901658238E-02  0.247702661683E-02  0.255757334298E-02  0.264073924773E-02
  0.272660950022E-02  0.281527203911E-02  0.290681766258E-02  0.300134012134E-02  0.309893621466E-02
  0.319970588946E-02  0.330375234270E-02  0.341118212703E-02  0.352210525994E-02  0.363663533642E-02
  0.375488964526E-02  0.387698928922E-02  0.400305930900E-02  0.413322881132E-02  0.426763110112E-02
  0.440640381809E-02  0.454968907762E-02  0.469763361634E-02  0.485038894238E-02  0.500811149055E-02
  0.517096278251E-02  0.533910959222E-02  0.551272411671E-02  0.569198415242E-02  0.587707327729E-02
  0.606818103877E-02  0.626550314789E-02  0.646924167974E-02  0.667960528038E-02  0.689680938052E-02
  0.712107641614E-02  0.735263605628E-02  0.759172543825E-02  0.783858941046E-02  0.809348078320E-02
  0.835666058750E-02  0.862839834249E-02  0.890897233137E-02  0.919866988642E-02  0.949778768325E-02
  0.980663204462E-02  0.101255192542E-01  0.104547758802E-01  0.107947391104E-01  0.111457570967E-01
  0.115081893122E-01  0.118824069192E-01  0.122687931492E-01  0.126677436955E-01  0.130796671184E-01
  0.135049852633E-01  0.139441336932E-01  0.143975621346E-01  0.148657349377E-01  0.153491315524E-01
  0.158482470190E-01  0.163635924756E-01  0.168956956807E-01  0.174451015546E-01  0.180123727370E-01
  0.185980901630E-01  0.192028536585E-01  0.198272825543E-01  0.204720163199E-01  0.211377152192E-01
  0.218250609860E-01  0.225347575224E-01  0.232675316197E-01  0.240241337025E-01  0.248053385977E-01
  0.256119463271E-01  0.264447829277E-01  0.273047012968E-01  0.281925820661E-01  0.291093345030E-01
  0.300558974421E-01  0.310332402466E-01  0.320423638010E-01  0.330843015359E-01  0.341601204866E-01
  0.352709223857E-01  0.364178447915E-01  0.376020622527E-01  0.388247875115E-01  0.400872727454E-01
  0.413908108496E-01  0.427367367610E-01  0.441264288253E-01  0.455613102087E-01  0.470428503551E-01
  0.485725664911E-01  0.501520251797E-01  0.517828439245E-01  0.534666928266E-01  0.552052962942E-01
  0.570004348093E-01  0.588539467506E-01  0.607677302763E-01  0.627437452680E-01  0.647840153376E-01
  0.668906299000E-01  0.690657463126E-01  0.713115920848E-01  0.736304671587E-01  0.760247462651E-01
  0.784968813551E-01  0.810494041110E-01  0.836849285392E-01  0.864061536469E-01  0.892158662065E-01
  0.921169436092E-01  0.951123568117E-01  0.982051733789E-01  0.101398560625E+00  0.104695788858E+00
  0.108100234728E+00  0.111615384684E+00  0.115244838548E+00  0.118992313197E+00  0.122861646372E+00
  0.126856800610E+00  0.130981867297E+00  0.135241070862E+00  0.139638773101E+00  0.144179477646E+00
  0.148867834575E+00  0.153708645176E+00  0.158706866861E+00  0.163867618246E+00  0.169196184391E+00
  0.174698022215E+00  0.180378766079E+00  0.186244233562E+00  0.192300431415E+00  0.198553561714E+00
  0.205010028210E+00  0.211676442890E+00  0.218559632744E+00  0.225666646762E+00  0.233004763145E+00
  0.240581496767E+00  0.248404606864E+00  0.256482104986E+00  0.264822263195E+00  0.273433622544E+00
  0.282325001815E+00  0.291505506559E+00  0.300984538415E+00  0.310771804740E+00  0.320877328549E+00
  0.331311458783E+00  0.342084880902E+00  0.353208627831E+00  0.364694091260E+00  0.376553033308E+00
  0.388797598566E+00  0.401440326540E+00  0.414494164488E+00  0.427972480680E+00  0.441889078091E+00
  0.456258208533E+00  0.471094587249E+00  0.486413407989E+00  0.502230358564E+00  0.518561636913E+00
  0.535423967692E+00  0.552834619402E+00  0.570811422071E+00  0.589372785517E+00  0.608537718197E+00
  0.628325846676E+00  0.648757435729E+00  0.669853409087E+00  0.691635370871E+00  0.714125627712E+00
  0.737347211600E+00  0.761323903465E+00  0.786080257535E+00  0.811641626479E+00  0.838034187374E+00
  0.865284968508E+00  0.893421877062E+00  0.922473727689E+00  0.952470272023E+00  0.983442229146E+00
  0.101542131705E+01  0.104844028511E+01  0.108253294765E+01  0.111773421852E+01  0.115408014690E+01
  0.119160795419E+01  0.123035607217E+01  0.127036418227E+01  0.131167325631E+01  0.135432559838E+01
  0.139836488821E+01  0.144383622588E+01  0.149078617801E+01  0.153926282547E+01  0.158931581256E+01
  0.164099639793E+01  0.169435750700E+01  0.174945378622E+01  0.180634165900E+01  0.186507938348E+01
  0.192572711222E+01  0.198834695381E+01  0.205300303643E+01  0.211976157356E+01  0.218869093177E+01
  0.225986170076E+01  0.233334676560E+01  0.240922138143E+01  0.248756325048E+01  0.256845260168E+01
  0.265197227278E+01  0.273820779523E+01  0.282724748173E+01  0.291918251672E+01  0.301410704969E+01
  0.311211829167E+01  0.321331661473E+01  0.331780565480E+01  0.342569241778E+01  0.353708738915E+01
  0.365210464709E+01  0.377086197933E+01  0.389348100375E+01  0.402008729294E+01  0.415081050282E+01
  0.428578450536E+01  0.442514752575E+01  0.456904228390E+01  0.471761614060E+01  0.487102124848E+01
  0.502941470777E+01  0.519295872721E+01  0.536182079017E+01
 aepotential
  0.115476059528E+05  0.115714146478E+05  0.115881314637E+05  0.115973334407E+05  0.115986258795E+05
  0.115916466232E+05  0.115760714438E+05  0.115516184596E+05  0.115180524501E+05  0.114751887475E+05
  0.114228966476E+05  0.113611021901E+05  0.112897904136E+05  0.112090067740E+05  0.111188578426E+05
  0.110195112625E+05  0.109111948720E+05  0.107941949247E+05  0.106688535648E+05  0.105355657854E+05
  0.103947750643E+05  0.102469691305E+05  0.100926745581E+05  0.993245123896E+04  0.976688640344E+04
  0.959658831343E+04  0.942218006405E+04  0.924429307743E+04  0.906356095881E+04  0.888061329072E+04
  0.869607007875E+04  0.851053618519E+04  0.832459651160E+04  0.813881161585E+04  0.795371379156E+04
  0.776980392819E+04  0.758754876728E+04  0.740737894490E+04  0.722968749470E+04  0.705482901287E+04
  0.688311929690E+04  0.671483552080E+04  0.655021683957E+04  0.638946539895E+04  0.623274768681E+04
  0.608019617183E+04  0.593191117931E+04  0.578796294306E+04  0.564839379201E+04  0.551322041735E+04
  0.538243618190E+04  0.525601343195E+04  0.513390577873E+04  0.501605032094E+04  0.490236978501E+04
  0.479277456396E+04  0.468716464040E+04  0.458543138307E+04  0.448745921005E+04  0.439312711480E+04
  0.430231005429E+04  0.421488020042E+04  0.413070805849E+04  0.404966345741E+04  0.397161641745E+04
  0.389643790447E+04  0.382400047508E+04  0.375417882440E+04  0.368685024195E+04  0.362189498755E+04
  0.355919658673E+04  0.349864206770E+04  0.344012213361E+04  0.338353128399E+04  0.332876789203E+04
  0.327573424057E+04  0.322433652747E+04  0.317448483763E+04  0.312609309812E+04  0.307907900459E+04
  0.303336393998E+04  0.298887287539E+04  0.294553426244E+04  0.290327991949E+04  0.286204490994E+04
  0.282176742074E+04  0.278238863578E+04  0.274385261201E+04  0.270610615387E+04  0.266909869205E+04
  0.263278216248E+04  0.259711089011E+04  0.256204147669E+04  0.252753269075E+04  0.249354536499E+04
  0.246004229530E+04  0.242698814775E+04  0.239434936748E+04  0.236209409523E+04  0.233019208702E+04
  0.229861464032E+04  0.226733452388E+04  0.223632591370E+04  0.220556433298E+04  0.217502659737E+04
  0.214469076497E+04  0.211453609059E+04  0.208454298523E+04  0.205469297957E+04  0.202496869236E+04
  0.199535380300E+04  0.196583302889E+04  0.193639210700E+04  0.190701777993E+04  0.187769778690E+04
  0.184842085868E+04  0.181917671786E+04  0.178995608351E+04  0.176075068097E+04  0.173155325665E+04
  0.170235759819E+04  0.167315856000E+04  0.164395209460E+04  0.161473528946E+04  0.158550641049E+04
  0.155626495063E+04  0.152701168553E+04  0.149774873488E+04  0.146847962865E+04  0.143920938001E+04
  0.140994456078E+04  0.138069338108E+04  0.135146576862E+04  0.132227344719E+04  0.129313000898E+04
  0.126405097695E+04  0.123505385149E+04  0.120615813343E+04  0.117738531608E+04  0.114875883552E+04
  0.112030397016E+04  0.109204767858E+04  0.106401836825E+04  0.103624558979E+04  0.100875966048E+04
  0.981591230187E+03  0.954770821590E+03  0.928328398552E+03  0.902293047554E+03  0.876692890963E+03
  0.851555386416E+03  0.826908192289E+03  0.802780779646E+03  0.779206924501E+03  0.756228091870E+03
  0.733897501362E+03  0.712284338053E+03  0.691477178120E+03  0.671585337986E+03  0.652736702408E+03
  0.635070845427E+03  0.618727051860E+03  0.603828162863E+03  0.590462745479E+03  0.578668801892E+03
  0.568422857852E+03  0.559636711431E+03  0.552162466078E+03  0.545804421548E+03  0.540335152761E+03
  0.535512867366E+03  0.531097666336E+03  0.526865097222E+03  0.522616062461E+03  0.518182699921E+03
  0.513430428559E+03  0.508256873524E+03  0.502588699678E+03  0.496377401009E+03  0.489594859714E+03
  0.482229221377E+03  0.474281365400E+03  0.465762096803E+03  0.456690061859E+03  0.447090326591E+03
  0.436993516889E+03  0.426435398320E+03  0.415456772406E+03  0.404103566782E+03  0.392427005336E+03
  0.380483751185E+03  0.368335928486E+03  0.356050958641E+03  0.343701199547E+03  0.331363473293E+03
  0.319118708068E+03  0.307052070637E+03  0.295254060101E+03  0.283822893017E+03  0.272867961114E+03
  0.262513052599E+03  0.252896649072E+03  0.244165735794E+03  0.236460361051E+03  0.229889268637E+03
  0.224501246709E+03  0.220260092717E+03  0.217032280440E+03  0.214595852228E+03  0.212674584255E+03
  0.210989067443E+03  0.209301286668E+03  0.207432631658E+03  0.205255939555E+03  0.202679093317E+03
  0.199634464432E+03  0.196076133637E+03  0.191979893047E+03  0.187341978178E+03  0.182175938911E+03
  0.176508951947E+03  0.170378858501E+03  0.163832433442E+03  0.156924751742E+03  0.149719188432E+03
  0.142287492204E+03  0.134709368691E+03  0.127071163369E+03  0.119463671559E+03  0.111980059077E+03
  0.104716299378E+03  0.977776123642E+02  0.912929904925E+02  0.854333122471E+02  0.804172480250E+02
  0.764810570681E+02  0.737950492092E+02  0.723387839134E+02  0.718112983758E+02  0.717120349864E+02
  0.715972882308E+02  0.712625241370E+02  0.706914087155E+02  0.699138533802E+02  0.689266264599E+02
  0.676892590053E+02  0.661512800997E+02  0.642772804070E+02  0.620569852832E+02  0.595027586553E+02
  0.566421463009E+02  0.535109884412E+02  0.501490151482E+02  0.465976891279E+02  0.428994509499E+02
  0.390976204316E+02  0.352364564855E+02  0.313610619252E+02  0.275169429663E+02  0.237491446605E+02
  0.201010707522E+02  0.166133305309E+02  0.133232367899E+02  0.102653895946E+02  0.747347079856E+01
  0.498103798616E+01  0.281872693044E+01  0.100516123451E+01 -0.466204245842E+00 -0.163615719120E+01
 -0.257577519462E+01 -0.336888181978E+01 -0.409129216818E+01 -0.479878796832E+01 -0.552651405564E+01
 -0.629449648450E+01 -0.711334625262E+01 -0.798777659973E+01 -0.891827126998E+01 -0.990190927813E+01
 -0.109330094225E+02 -0.120037797605E+02 -0.131049608029E+02 -0.142263325322E+02 -0.153575660333E+02
 -0.164877039707E+02 -0.176063698690E+02 -0.187034526515E+02 -0.197694030808E+02 -0.207953885884E+02
 -0.217733616224E+02 -0.226962116131E+02 -0.235578189266E+02 -0.243531102143E+02 -0.250780834468E+02
 -0.257298111084E+02 -0.263064161388E+02 -0.268070309030E+02 -0.272317368731E+02 -0.275814897284E+02
 -0.278580278498E+02 -0.280637664023E+02 -0.282016804446E+02 -0.282751795615E+02 -0.282879831759E+02
 -0.282439209949E+02 -0.281472579081E+02 -0.280017466331E+02 -0.278114501496E+02 -0.275802445498E+02
 -0.273118946847E+02 -0.270100367406E+02 -0.266781733047E+02 -0.263196646268E+02 -0.259377370742E+02
 -0.255354675592E+02 -0.251157849012E+02 -0.246814565418E+02 -0.242350758703E+02 -0.237790451129E+02
 -0.233155550453E+02 -0.228465642259E+02 -0.223737789588E+02 -0.218986393042E+02 -0.214223144877E+02
 -0.209457129444E+02 -0.204695100602E+02 -0.199941945695E+02 -0.195201312452E+02 -0.190476351739E+02
 -0.185770430600E+02 -0.181087924730E+02 -0.176434670746E+02 -0.171818358862E+02 -0.167248616315E+02
 -0.162736835488E+02 -0.158295740297E+02 -0.153938715590E+02 -0.149678949933E+02 -0.145528473384E+02
 -0.141497204190E+02 -0.137592139840E+02 -0.133816823724E+02 -0.130171180329E+02 -0.126651744157E+02
 -0.123252229915E+02 -0.119964329376E+02 -0.116778592327E+02 -0.113685258967E+02 -0.110674948417E+02
 -0.107739155573E+02 -0.104870551295E+02 -0.102063110435E+02
 core charge-density
  0.296757015202E+00  0.312157632170E+00  0.328349381013E+00  0.345372242195E+00  0.363268159663E+00
  0.382081132358E+00  0.401857309555E+00  0.422645090157E+00  0.444495226078E+00  0.467460929810E+00
  0.491597986324E+00  0.516964869397E+00  0.543622862501E+00  0.571636184348E+00  0.601072119219E+00
  0.632001152164E+00  0.664497109175E+00  0.698637302427E+00  0.734502680653E+00  0.772177984746E+00
  0.811751908621E+00  0.853317265398E+00  0.896971158929E+00  0.942815160692E+00  0.990955492013E+00
  0.104150321163E+01  0.109457440851E+01  0.115029039982E+01  0.120877793404E+01  0.127016939888E+01
  0.133460303402E+01  0.140222314832E+01  0.147318034122E+01  0.154763172812E+01  0.162574116918E+01
  0.170767950131E+01  0.179362477259E+01  0.188376247882E+01  0.197828580129E+01  0.207739584522E+01
  0.218130187783E+01  0.229022156535E+01  0.240438120767E+01  0.252401596970E+01  0.264937010791E+01
  0.278069719084E+01  0.291826031193E+01  0.306233229281E+01  0.321319587546E+01  0.337114390083E+01
  0.353647947191E+01  0.370951609866E+01  0.389057782224E+01  0.407999931541E+01  0.427812595634E+01
  0.448531387203E+01  0.470192994801E+01  0.492835180022E+01  0.516496770496E+01  0.541217648227E+01
  0.567038732809E+01  0.594001958997E+01  0.622150248080E+01  0.651527472490E+01  0.682178413024E+01
  0.714148708032E+01  0.747484793888E+01  0.782233836025E+01  0.818443649790E+01  0.856162610320E+01
  0.895439550639E+01  0.936323647125E+01  0.978864291467E+01  0.102311094823E+02  0.106911299709E+02
  0.111691955884E+02  0.116657930422E+02  0.121814024454E+02  0.127164950334E+02  0.132715306797E+02
  0.138469552031E+02  0.144431974573E+02  0.150606661946E+02  0.156997466968E+02  0.163607971658E+02
  0.170441448689E+02  0.177500820344E+02  0.184788614944E+02  0.192306920736E+02  0.200057337247E+02
  0.208040924143E+02  0.216258147640E+02  0.224708824568E+02  0.233392064196E+02  0.242306207983E+02
  0.251448767469E+02  0.260816360526E+02  0.270404646305E+02  0.280208259202E+02  0.290220742282E+02
  0.300434480633E+02  0.310840635214E+02  0.321429077812E+02  0.332188327830E+02  0.343105491701E+02
  0.354166205800E+02  0.365354583841E+02  0.376653169820E+02  0.388042897669E+02  0.399503058887E+02
  0.411011279490E+02  0.422543507745E+02  0.434074014197E+02  0.445575405630E+02  0.457018654622E+02
  0.468373146456E+02  0.479606745153E+02  0.490685880459E+02  0.501575657567E+02  0.512239991387E+02
  0.522641767056E+02  0.532743028347E+02  0.542505195447E+02  0.551889313427E+02  0.560856332480E+02
  0.569367420700E+02  0.577384309860E+02  0.584869674180E+02  0.591787541632E+02  0.598103736743E+02
  0.603786353233E+02  0.608806254104E+02  0.613137596019E+02  0.616758373946E+02  0.619650981107E+02
  0.621802778288E+02  0.623206665521E+02  0.623861648078E+02  0.623773387587E+02  0.622954728013E+02
  0.621426185139E+02  0.619216387159E+02  0.616362453060E+02  0.612910294625E+02  0.608914827250E+02
  0.604440074295E+02  0.599559149495E+02  0.594354102059E+02  0.588915609527E+02  0.583342504339E+02
  0.577741121363E+02  0.572224455437E+02  0.566911120334E+02  0.561924103476E+02  0.557389314197E+02
  0.553433927481E+02  0.550184529756E+02  0.547765078603E+02  0.546294694002E+02  0.545885305031E+02
  0.546639182578E+02  0.548646395673E+02  0.551982235686E+02  0.556704661454E+02  0.562851822028E+02
  0.570439723649E+02  0.579460110597E+02  0.589878634725E+02  0.601633391056E+02  0.614633897790E+02
  0.628760597869E+02  0.643864955672E+02  0.659770216101E+02  0.676272884155E+02  0.693144970675E+02
  0.710137034503E+02  0.726982032548E+02  0.743399967451E+02  0.759103297943E+02  0.773803049679E+02
  0.787215535281E+02  0.799069561676E+02  0.809113971968E+02  0.817125338700E+02  0.822915596858E+02
  0.826339379625E+02  0.827300799203E+02  0.825759400572E+02  0.821735009385E+02  0.815311197954E+02
  0.806637106792E+02  0.795927384802E+02  0.783460049718E+02  0.769572122390E+02  0.754652953756E+02
  0.739135241205E+02  0.723483819732E+02  0.708182410611E+02  0.693718612715E+02  0.680567525193E+02
  0.669174490160E+02  0.659937535494E+02  0.653190175668E+02  0.649185287859E+02  0.648080816520E+02
  0.649928066654E+02  0.654663320149E+02  0.662103443573E+02  0.671946047952E+02  0.683774606228E+02
  0.697068735072E+02  0.711219587885E+02  0.725550069239E+02  0.739339312607E+02  0.751850630678E+02
  0.762361914886E+02  0.770197246348E+02  0.774758304946E+02  0.775554052279E+02  0.772227133381E+02
  0.764575496626E+02  0.752567872754E+02  0.736351979184E+02  0.716254620377E+02  0.692773228362E+02
  0.666558816161E+02  0.638390779782E+02  0.609144458511E+02  0.579752818870E+02  0.551164034204E+02
  0.524297055272E+02  0.499997475206E+02  0.478996057643E+02  0.461872205213E+02  0.449024405183E+02
  0.440649336664E+02  0.436730914316E+02  0.437040135282E+02  0.441146220986E+02  0.448439023550E+02
  0.458161588143E+02  0.469450479123E+02  0.481380770668E+02  0.493012996941E+02  0.503439691664E+02
  0.511829300633E+02  0.517465104088E+02  0.519776974894E+02  0.518364225490E+02  0.513008454072E+02
  0.503676055557E+02  0.490510790178E+02  0.473817425606E+02  0.454037953940E+02  0.431722223097E+02
  0.407495011116E+02  0.382021618675E+02  0.355973972071E+02  0.329999035379E+02  0.304691052200E+02
  0.280568791702E+02  0.258058585424E+02  0.237483554309E+02  0.219059012056E+02  0.202893703398E+02
  0.188996143201E+02  0.177285206698E+02  0.167603911588E+02  0.159735348099E+02  0.153419751337E+02
  0.148371801252E+02  0.144297228903E+02  0.140907893031E+02  0.137934641122E+02  0.135137451849E+02
  0.132312655853E+02  0.129297261928E+02  0.125970585400E+02  0.122253492136E+02  0.118105653449E+02
  0.113521260675E+02  0.108523674041E+02  0.103159472055E+02  0.974923304329E+01  0.915970838959E+01
  0.855543635565E+01  0.794457920643E+01  0.733501083638E+01  0.673401391523E+01  0.614806326435E+01
  0.558269067547E+01  0.504241882353E+01  0.453075472770E+01  0.405022973993E+01  0.360247338286E+01
  0.318830967539E+01  0.280786596201E+01  0.246068595727E+01  0.214584058658E+01  0.186203197100E+01
  0.160768752306E+01  0.138104248665E+01  0.118021035386E+01  0.100324141882E+01  0.848170294658E+00
  0.713053569600E+00  0.595998140019E+00  0.495185697984E+00  0.408886193126E+00  0.335470088748E+00
  0.273415897650E+00  0.221314679200E+00  0.177872090418E+00  0.141908440152E+00  0.112357086185E+00
  0.882614313785E-01  0.687707336136E-01  0.531349151005E-01  0.406985473797E-01  0.308941891914E-01
  0.232352567538E-01  0.173086074432E-01  0.127670144303E-01  0.932170041284E-02  0.673508284420E-02
  0.481386189791E-02  0.340255732332E-02  0.237757317637E-02  0.164184200227E-02  0.112007404222E-02
  0.754613711402E-03  0.501885780400E-03  0.329397989509E-03  0.213255036608E-03  0.136131316033E-03
  0.856457386517E-04  0.530811667936E-04  0.323928205582E-04  0.194538409461E-04  0.114913972668E-04
  0.667270500338E-05  0.380655481824E-05  0.213202576645E-05  0.117166343432E-05  0.631357182893E-06
  0.333360294851E-06  0.172352474848E-06  0.871924233221E-07  0.431305168134E-07  0.208457116000E-07
  0.983672111382E-08  0.452849989200E-08  0.203231104199E-08
 kinetic energy-density
  0.946490442468E+07  0.937244611742E+07  0.928159940341E+07  0.919235869432E+07  0.910471837848E+07
  0.901867285295E+07  0.893421655243E+07  0.885134398515E+07  0.877004975555E+07  0.869032860334E+07
  0.861217542267E+07  0.853558529892E+07  0.846055353510E+07  0.838707568139E+07  0.831514754671E+07
  0.824476525830E+07  0.817592525822E+07  0.810862433209E+07  0.804285963829E+07  0.797862873688E+07
  0.791592958052E+07  0.785476056957E+07  0.779512052850E+07  0.773700877092E+07  0.768042504115E+07
  0.762536960254E+07  0.757184319075E+07  0.751984703818E+07  0.746938288631E+07  0.742045297300E+07
  0.737306005687E+07  0.732720738669E+07  0.728289873712E+07  0.724013837204E+07  0.719893107227E+07
  0.715928210744E+07  0.712119724923E+07  0.708468275389E+07  0.704974536876E+07  0.701639231606E+07
  0.698463129265E+07  0.695447046190E+07  0.692591844583E+07  0.689898431941E+07  0.687367760077E+07
  0.685000824401E+07  0.682798662893E+07  0.680762355133E+07  0.678893021182E+07  0.677191820301E+07
  0.675659949598E+07  0.674298642462E+07  0.673109166823E+07  0.672092823188E+07  0.671250942441E+07
  0.670584883359E+07  0.670096029827E+07  0.669785787710E+07  0.669655581354E+07  0.669706849675E+07
  0.669941041804E+07  0.670359612226E+07  0.670964015395E+07  0.671755699868E+07  0.672736101547E+07
  0.673906636709E+07  0.675268693859E+07  0.676823625182E+07  0.678572736747E+07  0.680517278592E+07
  0.682658433108E+07  0.684997302683E+07  0.687534896705E+07  0.690272116944E+07  0.693209742168E+07
  0.696348411175E+07  0.699688605142E+07  0.703230627725E+07  0.706974584988E+07  0.710920362751E+07
  0.715067603201E+07  0.719415679586E+07  0.723963669435E+07  0.728710326207E+07  0.733654049136E+07
  0.738792851478E+07  0.744124327089E+07  0.749645615076E+07  0.755353362969E+07  0.761243688032E+07
  0.767312137017E+07  0.773553644071E+07  0.779962487472E+07  0.786532244505E+07  0.793255745289E+07
  0.800125025205E+07  0.807131276477E+07  0.814264798847E+07  0.821514949711E+07  0.828870093937E+07
  0.836317553845E+07  0.843843559515E+07  0.851433199993E+07  0.859070375845E+07  0.866737753508E+07
  0.874416722194E+07  0.882087353793E+07  0.889728366616E+07  0.897317093771E+07  0.904829456840E+07
  0.912239945978E+07  0.919521607136E+07  0.926646037741E+07  0.933583391491E+07  0.940302393832E+07
  0.946770368890E+07  0.952953279322E+07  0.958815780143E+07  0.964321287870E+07  0.969432066132E+07
  0.974109328968E+07  0.978313363045E+07  0.982003669824E+07  0.985139128673E+07  0.987678181978E+07
  0.989579042801E+07  0.990799925752E+07  0.991299301506E+07  0.991036175082E+07  0.989970387251E+07
  0.988062939392E+07  0.985276340224E+07  0.981574973099E+07  0.976925482822E+07  0.971297178708E+07
  0.964662452005E+07  0.956997203802E+07  0.948281279728E+07  0.938498906911E+07  0.927639128140E+07
  0.915696227451E+07  0.902670140966E+07  0.888566846284E+07  0.873398723012E+07  0.857184876951E+07
  0.839951419969E+07  0.821731697439E+07  0.802566455034E+07  0.782503937006E+07  0.761599907952E+07
  0.739917590911E+07  0.717527514992E+07  0.694507266623E+07  0.670941139316E+07  0.646919678034E+07
  0.622539115245E+07  0.597900697138E+07  0.573109900196E+07  0.548275540001E+07  0.523508777007E+07
  0.498922027047E+07  0.474627789078E+07  0.450737398341E+07  0.427359742627E+07  0.404599936993E+07
  0.382557999653E+07  0.361327542700E+07  0.340994501051E+07  0.321635920477E+07  0.303318825874E+07
  0.286099191325E+07  0.270021034393E+07  0.255115657299E+07  0.241401057496E+07  0.228881528694E+07
  0.217547471414E+07  0.207375428895E+07  0.198328360291E+07  0.190356158380E+07  0.183396413752E+07
  0.177375421906E+07  0.172209423840E+07  0.167806064732E+07  0.164066049567E+07  0.160884968675E+07
  0.158155260765E+07  0.155768275918E+07  0.153616396458E+07  0.151595169804E+07  0.149605404198E+07
  0.147555176318E+07  0.145361698613E+07  0.142952994721E+07  0.140269333114E+07  0.137264372612E+07
  0.133905978758E+07  0.130176677274E+07  0.126073719544E+07  0.121608745895E+07  0.116807043584E+07
  0.111706409248E+07  0.106355638167E+07  0.100812676724E+07  0.951424897023E+06  0.894147098428E+06
  0.837011531092E+06  0.780732902833E+06  0.725997791844E+06  0.673441425485E+06  0.623626799756E+06
  0.577026903529E+06  0.534010589449E+06  0.494832576682E+06  0.459628000990E+06  0.428411735278E+06
  0.401082544726E+06  0.377431906879E+06  0.357157086353E+06  0.339877827174E+06  0.325155833359E+06
  0.312516067209E+06  0.301468812475E+06  0.291531429055E+06  0.282248763101E+06  0.273211266844E+06
  0.264070018740E+06  0.254548010308E+06  0.244447267764E+06  0.233651605984E+06  0.222125049440E+06
  0.209906201353E+06  0.197099065726E+06  0.183861014162E+06  0.170388693903E+06  0.156902716429E+06
  0.143631960481E+06  0.130798440470E+06  0.118603690771E+06  0.107217702700E+06  0.967712080637E+05
  0.873514987988E+05  0.790012748944E+05  0.717199118837E+05  0.654669438393E+05  0.601675689605E+05
  0.557197741004E+05  0.520025199644E+05  0.488843127194E+05  0.462315454368E+05  0.439160521281E+05
  0.418214235945E+05  0.398477799199E+05  0.379148572013E+05  0.359634214931E+05  0.339551525584E+05
  0.318712351777E+05  0.297099539661E+05  0.274836104749E+05  0.252150757843E+05  0.229342563567E+05
  0.206747272031E+05  0.184707014746E+05  0.163544874247E+05  0.143545045535E+05  0.124938934072E+05
  0.107897087810E+05  0.925262255095E+04  0.788707576242E+04  0.669178389993E+04  0.566051464124E+04
  0.478303230794E+04  0.404616924876E+04  0.343485999054E+04  0.293311244082E+04  0.252484203626E+04
  0.219454907210E+04  0.192783505980E+04  0.171176400744E+04  0.153508028700E+04  0.138829922557E+04
  0.126369031833E+04  0.115517542913E+04  0.105816552575E+04  0.969359769231E+03  0.886519794805E+03
  0.808253552738E+03  0.733808742787E+03  0.662882039697E+03  0.595462879307E+03  0.531706404725E+03
  0.471834207456E+03  0.416066963938E+03  0.364576977661E+03  0.317462754426E+03  0.274738573369E+03
  0.236335356289E+03  0.202109113562E+03  0.171853835990E+03  0.145316388779E+03  0.122211573992E+03
  0.102236122201E+03  0.850808553443E+02  0.704406485259E+02  0.580221077537E+02  0.475490863557E+02
  0.387664240307E+02  0.314413957742E+02  0.253649763197E+02  0.203514849115E+02  0.162373505632E+02
  0.128797838441E+02  0.101550731541E+02  0.795676419422E+01  0.619382809396E+01  0.478888968419E+01
  0.367656188480E+01  0.280190841019E+01  0.211904688187E+01  0.158989229163E+01  0.118303592852E+01
  0.872751633585E+00  0.638119876653E+00  0.462259826245E+00  0.331659856999E+00  0.235597428096E+00
  0.165639819142E+00  0.115217710745E+00  0.792640303339E-01  0.539108635019E-01  0.362375867921E-01
  0.240637570156E-01  0.157806663731E-01  0.102159544984E-01  0.652611066957E-02  0.411222243212E-02
  0.255483619900E-02  0.156430803683E-02  0.943520949504E-03  0.560318843200E-03  0.327448727141E-03
  0.188204741585E-03  0.106325249203E-03  0.590045511124E-04  0.321431939673E-04  0.171769630597E-04
  0.899802528479E-05  0.461714258487E-05  0.231899672590E-05  0.113919528761E-05  0.546932049213E-06
  0.256429104401E-06  0.117315915034E-06  0.523303705930E-07
 mkinetic energy-density pseudized
  0.799727909514E-05  0.852583844802E-05  0.908933155560E-05  0.969006727340E-05  0.103305070547E-04
  0.110132750363E-04  0.117411687901E-04  0.125171707866E-04  0.133444606147E-04  0.142264280100E-04
  0.151666867438E-04  0.161690894301E-04  0.172377433115E-04  0.183770270880E-04  0.195916088582E-04
  0.208864652468E-04  0.222669017952E-04  0.237385747007E-04  0.253075139923E-04  0.269801482379E-04
  0.287633308847E-04  0.306643683407E-04  0.326910499115E-04  0.348516797167E-04  0.371551107146E-04
  0.396107809769E-04  0.422287523594E-04  0.450197517301E-04  0.479952149211E-04  0.511673335854E-04
  0.545491051516E-04  0.581543860787E-04  0.619979486319E-04  0.660955414101E-04  0.704639538743E-04
  0.751210851404E-04  0.800860173189E-04  0.853790937014E-04  0.910220021158E-04  0.970378637886E-04
  0.103451328083E-03  0.110288673494E-03  0.117577915326E-03  0.125348920478E-03  0.133633529822E-03
  0.142465688666E-03  0.151881585843E-03  0.161919801988E-03  0.172621467618E-03  0.184030431660E-03
  0.196193441116E-03  0.209160332604E-03  0.222984236555E-03  0.237721794912E-03  0.253433393207E-03
  0.270183407989E-03  0.288040470594E-03  0.307077748354E-03  0.327373244391E-03  0.349010117222E-03
  0.372077021490E-03  0.396668471213E-03  0.422885227041E-03  0.450834709109E-03  0.480631437170E-03
  0.512397499828E-03  0.546263054770E-03  0.582366862067E-03  0.620856852722E-03  0.661890734788E-03
  0.705636639550E-03  0.752273810411E-03  0.801993337306E-03  0.854998939658E-03  0.911507801074E-03
  0.971751459209E-03  0.103597675444E-02  0.110444684125E-02  0.117744226642E-02  0.125526211850E-02
  0.133822525331E-02  0.142667160026E-02  0.152096355521E-02  0.162148746524E-02  0.172865521161E-02
  0.184290589730E-02  0.196470764611E-02  0.209455952061E-02  0.223299356691E-02  0.238057699448E-02
  0.253791450012E-02  0.270565074541E-02  0.288447299795E-02  0.307511394716E-02  0.327835470606E-02
  0.349502801159E-02  0.372602163620E-02  0.397228202510E-02  0.423481817374E-02  0.451470576150E-02
  0.481309155869E-02  0.513119812457E-02  0.547032881594E-02  0.583187312665E-02  0.621731237992E-02
  0.662822579683E-02  0.706629696571E-02  0.753332073905E-02  0.803121058612E-02  0.856200643132E-02
  0.912788301047E-02  0.973115877918E-02  0.103743054097E-01  0.110599579155E-01  0.117909254438E-01
  0.125702027828E-01  0.134009826269E-01  0.142866686540E-01  0.152308894656E-01  0.162375134478E-01
  0.173106646143E-01  0.184547394955E-01  0.196744251426E-01  0.209747183218E-01  0.223609459750E-01
  0.238387870319E-01  0.254142956630E-01  0.270939260667E-01  0.288845588942E-01  0.307935294178E-01
  0.328286575593E-01  0.349982799004E-01  0.373112838058E-01  0.397771437980E-01  0.424059603325E-01
  0.452085011323E-01  0.481962452481E-01  0.513814300259E-01  0.547771011723E-01  0.583971661216E-01
  0.622564509221E-01  0.663707608725E-01  0.707569451559E-01  0.754329657337E-01  0.804179707788E-01
  0.857323729473E-01  0.913979328061E-01  0.974378477537E-01  0.103876846796E+00  0.110741291562E+00
  0.118059283962E+00  0.125860780933E+00  0.134177716730E+00  0.143044133251E+00  0.152496318935E+00
  0.162572956782E+00  0.173315282088E+00  0.184767250540E+00  0.196975717341E+00  0.209990628073E+00
  0.223865222078E+00  0.238656249159E+00  0.254424200468E+00  0.271233554500E+00  0.289153039168E+00
  0.308255911009E+00  0.328620252609E+00  0.350329289431E+00  0.373471727295E+00  0.398142111828E+00
  0.424441211298E+00  0.452476424321E+00  0.482362214025E+00  0.514220570365E+00  0.548181502358E+00
  0.584383562146E+00  0.622974402877E+00  0.664111372547E+00  0.707962146034E+00  0.754705397730E+00
  0.804531517266E+00  0.857643371018E+00  0.914257112194E+00  0.974603042487E+00  0.103892652843E+01
  0.110748897574E+01  0.118056886521E+01  0.125846285370E+01  0.134148694422E+01  0.142997772902E+01
  0.152429371010E+01  0.162481670145E+01  0.173195331773E+01  0.184613655430E+01  0.196782746367E+01
  0.209751693355E+01  0.223572757215E+01  0.238301570624E+01  0.253997349802E+01  0.270723118665E+01
  0.288545946078E+01  0.307537196841E+01  0.327772797039E+01  0.349333514419E+01  0.372305254454E+01
  0.396779372727E+01  0.422853004298E+01  0.450629410674E+01  0.480218344990E+01  0.511736435975E+01
  0.545307591220E+01  0.581063420226E+01  0.619143677607E+01  0.659696726760E+01  0.702880024159E+01
  0.748860624333E+01  0.797815705371E+01  0.849933114631E+01  0.905411934069E+01  0.964463064317E+01
  0.102730982632E+02  0.109418857893E+02  0.116534935042E+02  0.124105648132E+02  0.132158927545E+02
  0.140724265517E+02  0.149832781622E+02  0.159517287657E+02  0.169812351245E+02  0.180754357385E+02
  0.192381567021E+02  0.204734171540E+02  0.217854341960E+02  0.231786271347E+02  0.246576208793E+02
  0.262272483026E+02  0.278925513460E+02  0.296587806171E+02  0.315313931939E+02  0.335160483126E+02
  0.356186005726E+02  0.378450902469E+02  0.402017302347E+02  0.426948891387E+02  0.453310698881E+02
  0.481168832677E+02  0.510590156398E+02  0.541641900780E+02  0.574391200521E+02  0.608904547279E+02
  0.645247148614E+02  0.683482181917E+02  0.723669931549E+02  0.765866796705E+02  0.810124156875E+02
  0.856487081227E+02  0.904992867961E+02  0.955669399526E+02  0.100853329990E+03  0.106358788076E+03
  0.112082086465E+03  0.118020187507E+03  0.124167968629E+03  0.130517922939E+03  0.137059835606E+03
  0.143780436844E+03  0.150663033125E+03  0.157687119323E+03  0.164827975746E+03  0.172056255568E+03
  0.179337570045E+03  0.186632081081E+03  0.193894113285E+03  0.201071800625E+03  0.208106786109E+03
  0.214933996711E+03  0.221481519802E+03  0.227670611778E+03  0.233415874083E+03  0.238625636382E+03
  0.243202590882E+03  0.247044725444E+03  0.250046605645E+03  0.252101056754E+03  0.253101294872E+03
  0.252943551304E+03  0.251530224362E+03  0.248773576916E+03  0.244599974509E+03  0.238954626003E+03
  0.231806744739E+03  0.223154991312E+03  0.213032987869E+03  0.201514607260E+03  0.188718638667E+03
  0.174812315891E+03  0.160013069174E+03  0.144587733130E+03  0.128848322976E+03  0.113143395011E+03
  0.978439575881E+02  0.833229255062E+02  0.699272513505E+02  0.579421670534E+02  0.475474790877E+02
  0.387664240307E+02  0.314413957742E+02  0.253649763197E+02  0.203514849115E+02  0.162373505632E+02
  0.128797838441E+02  0.101550731541E+02  0.795676419422E+01  0.619382809396E+01  0.478888968419E+01
  0.367656188480E+01  0.280190841019E+01  0.211904688187E+01  0.158989229163E+01  0.118303592852E+01
  0.872751633585E+00  0.638119876653E+00  0.462259826245E+00  0.331659856999E+00  0.235597428096E+00
  0.165639819142E+00  0.115217710745E+00  0.792640303339E-01  0.539108635019E-01  0.362375867921E-01
  0.240637570156E-01  0.157806663731E-01  0.102159544984E-01  0.652611066957E-02  0.411222243212E-02
  0.255483619900E-02  0.156430803683E-02  0.943520949504E-03  0.560318843200E-03  0.327448727141E-03
  0.188204741585E-03  0.106325249203E-03  0.590045511124E-04  0.321431939673E-04  0.171769630597E-04
  0.899802528479E-05  0.461714258487E-05  0.231899672590E-05  0.113919528761E-05  0.546932049213E-06
  0.256429104401E-06  0.117315915034E-06  0.523303705930E-07
 local pseudopotential core
 -0.854318965504E+02 -0.854315142252E+02 -0.854311439403E+02 -0.854307853168E+02 -0.854304379872E+02
 -0.854301015960E+02 -0.854297757985E+02 -0.854294602611E+02 -0.854291546609E+02 -0.854288586845E+02
 -0.854285720289E+02 -0.854282944008E+02 -0.854280255156E+02 -0.854277650980E+02 -0.854275128813E+02
 -0.854272686072E+02 -0.854270320255E+02 -0.854268028939E+02 -0.854265809778E+02 -0.854263660498E+02
 -0.854261578897E+02 -0.854259562845E+02 -0.854257610278E+02 -0.854255719192E+02 -0.854253887653E+02
 -0.854252113785E+02 -0.854250395770E+02 -0.854248731849E+02 -0.854247120316E+02 -0.854245559523E+02
 -0.854244047868E+02 -0.854242583805E+02 -0.854241165832E+02 -0.854239792499E+02 -0.854238462396E+02
 -0.854237174162E+02 -0.854235926477E+02 -0.854234718062E+02 -0.854233547678E+02 -0.854232414127E+02
 -0.854231316246E+02 -0.854230252911E+02 -0.854229223030E+02 -0.854228225549E+02 -0.854227259446E+02
 -0.854226323728E+02 -0.854225417437E+02 -0.854224539643E+02 -0.854223689446E+02 -0.854222865973E+02
 -0.854222068379E+02 -0.854221295846E+02 -0.854220547580E+02 -0.854219822814E+02 -0.854219120803E+02
 -0.854218440825E+02 -0.854217782181E+02 -0.854217144195E+02 -0.854216526210E+02 -0.854215927590E+02
 -0.854215347719E+02 -0.854214786000E+02 -0.854214241853E+02 -0.854213714717E+02 -0.854213204049E+02
 -0.854212709321E+02 -0.854212230021E+02 -0.854211765653E+02 -0.854211315737E+02 -0.854210879807E+02
 -0.854210457408E+02 -0.854210048102E+02 -0.854209651463E+02 -0.854209267078E+02 -0.854208894544E+02
 -0.854208533472E+02 -0.854208183482E+02 -0.854207844207E+02 -0.854207515288E+02 -0.854207196378E+02
 -0.854206887140E+02 -0.854206587242E+02 -0.854206296365E+02 -0.854206014197E+02 -0.854205740434E+02
 -0.854205474778E+02 -0.854205216942E+02 -0.854204966642E+02 -0.854204723602E+02 -0.854204487553E+02
 -0.854204258231E+02 -0.854204035376E+02 -0.854203818736E+02 -0.854203608062E+02 -0.854203403108E+02
 -0.854203203636E+02 -0.854203009407E+02 -0.854202820187E+02 -0.854202635747E+02 -0.854202455856E+02
 -0.854202280290E+02 -0.854202108823E+02 -0.854201941230E+02 -0.854201777291E+02 -0.854201616781E+02
 -0.854201459479E+02 -0.854201305162E+02 -0.854201153605E+02 -0.854201004582E+02 -0.854200857866E+02
 -0.854200713226E+02 -0.854200570429E+02 -0.854200429238E+02 -0.854200289410E+02 -0.854200150700E+02
 -0.854200012854E+02 -0.854199875614E+02 -0.854199738714E+02 -0.854199601880E+02 -0.854199464829E+02
 -0.854199327270E+02 -0.854199188898E+02 -0.854199049400E+02 -0.854198908448E+02 -0.854198765702E+02
 -0.854198620807E+02 -0.854198473391E+02 -0.854198323064E+02 -0.854198169420E+02 -0.854198012031E+02
 -0.854197850447E+02 -0.854197684195E+02 -0.854197512778E+02 -0.854197335670E+02 -0.854197152318E+02
 -0.854196962137E+02 -0.854196764508E+02 -0.854196558779E+02 -0.854196344257E+02 -0.854196120210E+02
 -0.854195885861E+02 -0.854195640387E+02 -0.854195382916E+02 -0.854195112520E+02 -0.854194828216E+02
 -0.854194528960E+02 -0.854194213641E+02 -0.854193881082E+02 -0.854193530027E+02 -0.854193159145E+02
 -0.854192767016E+02 -0.854192352135E+02 -0.854191912894E+02 -0.854191447588E+02 -0.854190954398E+02
 -0.854190431388E+02 -0.854189876499E+02 -0.854189287537E+02 -0.854188662165E+02 -0.854187997895E+02
 -0.854187292075E+02 -0.854186541881E+02 -0.854185744304E+02 -0.854184896139E+02 -0.854183993970E+02
 -0.854183034155E+02 -0.854182012815E+02 -0.854180925815E+02 -0.854179768748E+02 -0.854178536916E+02
 -0.854177225312E+02 -0.854175828597E+02 -0.854174341080E+02 -0.854172756695E+02 -0.854171068973E+02
 -0.854169271018E+02 -0.854167355475E+02 -0.854165314503E+02 -0.854163139742E+02 -0.854160822275E+02
 -0.854158352593E+02 -0.854155720555E+02 -0.854152915345E+02 -0.854149925429E+02 -0.854146738503E+02
 -0.854143341441E+02 -0.854139720244E+02 -0.854135859978E+02 -0.854131744708E+02 -0.854127357437E+02
 -0.854122680028E+02 -0.854117693127E+02 -0.854112376085E+02 -0.854106706862E+02 -0.854100661941E+02
 -0.854094216217E+02 -0.854087342897E+02 -0.854080013376E+02 -0.854072197119E+02 -0.854063861522E+02
 -0.854054971772E+02 -0.854045490690E+02 -0.854035378571E+02 -0.854024593001E+02 -0.854013088672E+02
 -0.854000817175E+02 -0.853987726780E+02 -0.853973762202E+02 -0.853958864348E+02 -0.853942970041E+02
 -0.853926011727E+02 -0.853907917159E+02 -0.853888609058E+02 -0.853868004739E+02 -0.853846015718E+02
 -0.853822547282E+02 -0.853797498024E+02 -0.853770759345E+02 -0.853742214909E+02 -0.853711740053E+02
 -0.853679201158E+02 -0.853644454950E+02 -0.853607347758E+02 -0.853567714695E+02 -0.853525378777E+02
 -0.853480149957E+02 -0.853431824080E+02 -0.853380181737E+02 -0.853324987022E+02 -0.853265986169E+02
 -0.853202906063E+02 -0.853135452617E+02 -0.853063308988E+02 -0.852986133624E+02 -0.852903558124E+02
 -0.852815184887E+02 -0.852720584526E+02 -0.852619293028E+02 -0.852510808625E+02 -0.852394588344E+02
 -0.852270044210E+02 -0.852136539043E+02 -0.851993381828E+02 -0.851839822586E+02 -0.851675046707E+02
 -0.851498168666E+02 -0.851308225077E+02 -0.851104166971E+02 -0.850884851245E+02 -0.850649031167E+02
 -0.850395345825E+02 -0.850122308411E+02 -0.849828293192E+02 -0.849511521031E+02 -0.849170043269E+02
 -0.848801723807E+02 -0.848404219164E+02 -0.847974956289E+02 -0.847511107873E+02 -0.847009564886E+02
 -0.846466906036E+02 -0.845879363817E+02 -0.845242786785E+02 -0.844552597671E+02 -0.843803746923E+02
 -0.842990661220E+02 -0.842107186501E+02 -0.841146525025E+02 -0.840101165970E+02 -0.838962809080E+02
 -0.837722280910E+02 -0.836369443246E+02 -0.834893093358E+02 -0.833280855904E+02 -0.831519066416E+02
 -0.829592646633E+02 -0.827484972210E+02 -0.825177733849E+02 -0.822650793454E+02 -0.819882037654E+02
 -0.816847231990E+02 -0.813519880142E+02 -0.809871093863E+02 -0.805869480711E+02 -0.801481058081E+02
 -0.796669203250E+02 -0.791394649800E+02 -0.785615540135E+02 -0.779287540993E+02 -0.772364022273E+02
 -0.764796287110E+02 -0.756533820594E+02 -0.747524493490E+02 -0.737714616367E+02 -0.727048696458E+02
 -0.715468729241E+02 -0.702912914255E+02 -0.689313911082E+02 -0.674597236327E+02 -0.658681081163E+02
 -0.641479164574E+02 -0.622906939657E+02 -0.602887149003E+02 -0.581345116372E+02 -0.558188046365E+02
 -0.533378904291E+02 -0.507923419510E+02 -0.482558315286E+02 -0.457919745617E+02 -0.434696595367E+02
 -0.413587305918E+02 -0.395243337190E+02 -0.380164472212E+02 -0.367279706263E+02 -0.357724421734E+02
 -0.351634335894E+02 -0.340395190602E+02 -0.329566709062E+02 -0.319106689674E+02 -0.308997115145E+02
 -0.299221887726E+02 -0.289766522275E+02 -0.280617884803E+02 -0.271763969841E+02 -0.263193714607E+02
 -0.254896848868E+02 -0.246863769340E+02 -0.239085438747E+02 -0.231553303503E+02 -0.224259204270E+02
 -0.217195441017E+02 -0.210354511436E+02 -0.203729284806E+02 -0.197312878407E+02 -0.191098655397E+02
 -0.185080207959E+02 -0.179251344391E+02 -0.173606076986E+02 -0.168138612999E+02 -0.162843346320E+02
 -0.157714849998E+02 -0.152747869803E+02 -0.147937317945E+02 -0.143278267412E+02 -0.138765946743E+02
 -0.134395734828E+02 -0.130163156174E+02 -0.126063876199E+02 -0.122093696832E+02 -0.118248552187E+02
 -0.114524504416E+02 -0.110917739688E+02 -0.107424564285E+02
 pspotential valence only
 -0.180364719728E+02 -0.180360896554E+02 -0.180357193787E+02 -0.180353607639E+02 -0.180350134437E+02
 -0.180346770624E+02 -0.180343512756E+02 -0.180340357494E+02 -0.180337301613E+02 -0.180334341978E+02
 -0.180331475559E+02 -0.180328699423E+02 -0.180326010727E+02 -0.180323406717E+02 -0.180320884727E+02
 -0.180318442175E+02 -0.180316076559E+02 -0.180313785458E+02 -0.180311566525E+02 -0.180309417489E+02
 -0.180307336148E+02 -0.180305320373E+02 -0.180303368100E+02 -0.180301477330E+02 -0.180299646126E+02
 -0.180297872616E+02 -0.180296154982E+02 -0.180294491468E+02 -0.180292880369E+02 -0.180291320038E+02
 -0.180289808876E+02 -0.180288345338E+02 -0.180286927925E+02 -0.180285555189E+02 -0.180284225723E+02
 -0.180282938168E+02 -0.180281691205E+02 -0.180280483561E+02 -0.180279314000E+02 -0.180278181325E+02
 -0.180277084379E+02 -0.180276022039E+02 -0.180274993221E+02 -0.180273996873E+02 -0.180273031976E+02
 -0.180272097545E+02 -0.180271192626E+02 -0.180270316295E+02 -0.180269467657E+02 -0.180268645846E+02
 -0.180267850025E+02 -0.180267079381E+02 -0.180266333130E+02 -0.180265610511E+02 -0.180264910789E+02
 -0.180264233251E+02 -0.180263577209E+02 -0.180262941997E+02 -0.180262326969E+02 -0.180261731502E+02
 -0.180261154991E+02 -0.180260596855E+02 -0.180260056528E+02 -0.180259533465E+02 -0.180259027138E+02
 -0.180258537038E+02 -0.180258062673E+02 -0.180257603566E+02 -0.180257159258E+02 -0.180256729306E+02
 -0.180256313281E+02 -0.180255910770E+02 -0.180255521376E+02 -0.180255144714E+02 -0.180254780413E+02
 -0.180254428118E+02 -0.180254087486E+02 -0.180253758188E+02 -0.180253439905E+02 -0.180253132334E+02
 -0.180252835183E+02 -0.180252548172E+02 -0.180252271034E+02 -0.180252003513E+02 -0.180251745364E+02
 -0.180251496356E+02 -0.180251256266E+02 -0.180251024886E+02 -0.180250802016E+02 -0.180250587471E+02
 -0.180250381073E+02 -0.180250182658E+02 -0.180249992074E+02 -0.180249809176E+02 -0.180249633836E+02
 -0.180249465934E+02 -0.180249305361E+02 -0.180249152023E+02 -0.180249005835E+02 -0.180248866726E+02
 -0.180248734636E+02 -0.180248609518E+02 -0.180248491339E+02 -0.180248380079E+02 -0.180248275730E+02
 -0.180248178300E+02 -0.180248087812E+02 -0.180248004303E+02 -0.180247927826E+02 -0.180247858451E+02
 -0.180247796263E+02 -0.180247741368E+02 -0.180247693887E+02 -0.180247653965E+02 -0.180247621762E+02
 -0.180247597463E+02 -0.180247581275E+02 -0.180247573427E+02 -0.180247574175E+02 -0.180247583799E+02
 -0.180247602609E+02 -0.180247630941E+02 -0.180247669165E+02 -0.180247717682E+02 -0.180247776927E+02
 -0.180247847372E+02 -0.180247929529E+02 -0.180248023949E+02 -0.180248131228E+02 -0.180248252006E+02
 -0.180248386975E+02 -0.180248536876E+02 -0.180248702507E+02 -0.180248884724E+02 -0.180249084446E+02
 -0.180249302657E+02 -0.180249540414E+02 -0.180249798845E+02 -0.180250079162E+02 -0.180250382660E+02
 -0.180250710723E+02 -0.180251064833E+02 -0.180251446574E+02 -0.180251857640E+02 -0.180252299838E+02
 -0.180252775101E+02 -0.180253285493E+02 -0.180253833219E+02 -0.180254420633E+02 -0.180255050247E+02
 -0.180255724742E+02 -0.180256446983E+02 -0.180257220024E+02 -0.180258047125E+02 -0.180258931765E+02
 -0.180259877655E+02 -0.180260888754E+02 -0.180261969287E+02 -0.180263123757E+02 -0.180264356972E+02
 -0.180265674056E+02 -0.180267080475E+02 -0.180268582060E+02 -0.180270185027E+02 -0.180271896007E+02
 -0.180273722068E+02 -0.180275670751E+02 -0.180277750092E+02 -0.180279968664E+02 -0.180282335605E+02
 -0.180284860658E+02 -0.180287554214E+02 -0.180290427349E+02 -0.180293491870E+02 -0.180296760369E+02
 -0.180300246268E+02 -0.180303963875E+02 -0.180307928445E+02 -0.180312156242E+02 -0.180316664600E+02
 -0.180321472001E+02 -0.180326598145E+02 -0.180332064033E+02 -0.180337892051E+02 -0.180344106061E+02
 -0.180350731499E+02 -0.180357795477E+02 -0.180365326894E+02 -0.180373356553E+02 -0.180381917285E+02
 -0.180391044084E+02 -0.180400774245E+02 -0.180411147520E+02 -0.180422206273E+02 -0.180433995653E+02
 -0.180446563778E+02 -0.180459961927E+02 -0.180474244745E+02 -0.180489470464E+02 -0.180505701137E+02
 -0.180523002884E+02 -0.180541446160E+02 -0.180561106032E+02 -0.180582062482E+02 -0.180604400722E+02
 -0.180628211534E+02 -0.180653591629E+02 -0.180680644029E+02 -0.180709478473E+02 -0.180740211849E+02
 -0.180772968649E+02 -0.180807881462E+02 -0.180845091484E+02 -0.180884749068E+02 -0.180927014307E+02
 -0.180972057650E+02 -0.181020060555E+02 -0.181071216182E+02 -0.181125730127E+02 -0.181183821199E+02
 -0.181245722242E+02 -0.181311681008E+02 -0.181381961070E+02 -0.181456842799E+02 -0.181536624387E+02
 -0.181621622931E+02 -0.181712175570E+02 -0.181808640691E+02 -0.181911399189E+02 -0.182020855797E+02
 -0.182137440485E+02 -0.182261609917E+02 -0.182393848992E+02 -0.182534672439E+02 -0.182684626499E+02
 -0.182844290669E+02 -0.183014279515E+02 -0.183195244564E+02 -0.183387876251E+02 -0.183592905947E+02
 -0.183811108030E+02 -0.184043302025E+02 -0.184290354784E+02 -0.184553182715E+02 -0.184832754033E+02
 -0.185130091032E+02 -0.185446272356E+02 -0.185782435258E+02 -0.186139777820E+02 -0.186519561108E+02
 -0.186923111237E+02 -0.187351821313E+02 -0.187807153206E+02 -0.188290639121E+02 -0.188803882902E+02
 -0.189348561033E+02 -0.189926423244E+02 -0.190539292685E+02 -0.191189065553E+02 -0.191877710116E+02
 -0.192607265014E+02 -0.193379836762E+02 -0.194197596308E+02 -0.195062774571E+02 -0.195977656810E+02
 -0.196944575716E+02 -0.197965903109E+02 -0.199044040132E+02 -0.200181405839E+02 -0.201380424127E+02
 -0.202643508973E+02 -0.203973047999E+02 -0.205371384485E+02 -0.206840798019E+02 -0.208383484133E+02
 -0.210001533436E+02 -0.211696910967E+02 -0.213471436758E+02 -0.215326768901E+02 -0.217264390766E+02
 -0.219285604389E+02 -0.221391532394E+02 -0.223583131076E+02 -0.225861217307E+02 -0.228226511487E+02
 -0.230679697585E+02 -0.233221498710E+02 -0.235852761917E+02 -0.238574537767E+02 -0.241388126742E+02
 -0.244295043725E+02 -0.247296820494E+02 -0.250394522356E+02 -0.253587798792E+02 -0.256873227649E+02
 -0.260241673523E+02 -0.263674420555E+02 -0.267138052105E+02 -0.270578529770E+02 -0.273915615756E+02
 -0.277039160819E+02 -0.279807570932E+02 -0.282044598924E+02 -0.283525238571E+02 -0.283945722569E+02
 -0.282989360909E+02 -0.281308418158E+02 -0.279212241619E+02 -0.276842985297E+02 -0.274345787101E+02
 -0.271853448894E+02 -0.269468513022E+02 -0.267205417510E+02 -0.263621369981E+02 -0.259639454140E+02
 -0.255376558757E+02 -0.251157849012E+02 -0.246814565418E+02 -0.242350758702E+02 -0.237790451129E+02
 -0.233155550453E+02 -0.228465642259E+02 -0.223737789588E+02 -0.218986393042E+02 -0.214223144877E+02
 -0.209457129444E+02 -0.204695100602E+02 -0.199941945695E+02 -0.195201312452E+02 -0.190476351739E+02
 -0.185770430600E+02 -0.181087924730E+02 -0.176434670746E+02 -0.171818358862E+02 -0.167248616315E+02
 -0.162736835488E+02 -0.158295740297E+02 -0.153938715590E+02 -0.149678949933E+02 -0.145528473384E+02
 -0.141497204190E+02 -0.137592139840E+02 -0.133816823723E+02 -0.130171180329E+02 -0.126651744157E+02
 -0.123252229915E+02 -0.119964329376E+02 -0.116778592327E+02 -0.113685258967E+02 -0.110674948417E+02
 -0.107739155573E+02 -0.104870551295E+02 -0.102063110435E+02
 core charge-density (pseudized)
  0.106111587372E-06  0.113124756640E-06  0.120601443077E-06  0.128572281644E-06  0.137069932038E-06
  0.146129212515E-06  0.155787242552E-06  0.166083594941E-06  0.177060457935E-06  0.188762808109E-06
  0.201238594648E-06  0.214538935812E-06  0.228718328390E-06  0.243834870993E-06  0.259950502108E-06
  0.277131253886E-06  0.295447522696E-06  0.314974357577E-06  0.335791767733E-06  0.357985050368E-06
  0.381645140183E-06  0.406868981968E-06  0.433759927826E-06  0.462428160643E-06  0.492991145559E-06
  0.525574111260E-06  0.560310563093E-06  0.597342830092E-06  0.636822648153E-06  0.678911781755E-06
  0.723782686777E-06  0.771619217112E-06  0.822617377992E-06  0.876986129095E-06  0.934948240738E-06
  0.996741206653E-06  0.106261821709E-05  0.113284919623E-05  0.120772190818E-05  0.128754313606E-05
  0.137263993899E-05  0.146336099219E-05  0.156007801563E-05  0.166318729714E-05  0.177311131610E-05
  0.189030047455E-05  0.201523494263E-05  0.214842662603E-05  0.229042126344E-05  0.244180066270E-05
  0.260318508464E-05  0.277523578453E-05  0.295865772149E-05  0.315420244699E-05  0.336267118422E-05
  0.358491811097E-05  0.382185385958E-05  0.407444924805E-05  0.434373925788E-05  0.463082727479E-05
  0.493688960960E-05  0.526318031808E-05  0.561103633920E-05  0.598188297306E-05  0.637723972086E-05
  0.679872651075E-05  0.724807033530E-05  0.772711232751E-05  0.823781530458E-05  0.878227181017E-05
  0.936271268827E-05  0.998151622365E-05  0.106412178864E-04  0.113445207206E-04  0.120943064194E-04
  0.128936471324E-04  0.137458180525E-04  0.146543108363E-04  0.156228479093E-04  0.166553977183E-04
  0.177561909909E-04  0.189297380700E-04  0.201808473935E-04  0.215146451954E-04  0.229365965097E-04
  0.244525275609E-04  0.260686496358E-04  0.277915845316E-04  0.296283916871E-04  0.315865971055E-04
  0.336742241898E-04  0.358998266154E-04  0.382725233750E-04  0.408020361403E-04  0.434987290911E-04
  0.463736513786E-04  0.494385823927E-04  0.527060800225E-04  0.561895321046E-04  0.599032112724E-04
  0.638623334285E-04  0.680831200824E-04  0.725828648066E-04  0.773800040841E-04  0.824941928378E-04
  0.879463849498E-04  0.937589191023E-04  0.999556102890E-04  0.106561847374E-03  0.113604697098E-03
  0.121113014950E-03  0.129117563374E-03  0.137651137778E-03  0.146748700869E-03  0.156447525867E-03
  0.166787349176E-03  0.177810533138E-03  0.189562239549E-03  0.202090614623E-03  0.215446986186E-03
  0.229686073888E-03  0.244866213298E-03  0.261049594807E-03  0.278302518300E-03  0.296695664656E-03
  0.316304385167E-03  0.337209010075E-03  0.359495177481E-03  0.383254183963E-03  0.408583358353E-03
  0.435586460180E-03  0.464374104417E-03  0.495064214266E-03  0.527782503819E-03  0.562662992583E-03
  0.599848553943E-03  0.639491499822E-03  0.681754203907E-03  0.726809765989E-03  0.774842720113E-03
  0.826049789438E-03  0.880640690856E-03  0.938838992669E-03  0.100088302879E-02  0.106702687321E-02
  0.113754137864E-02  0.121271528360E-02  0.129285639244E-02  0.137829283303E-02  0.146937439724E-02
  0.156647396969E-02  0.166998905047E-02  0.178034337800E-02  0.189798865868E-02  0.202340641011E-02
  0.215710992556E-02  0.229964636738E-02  0.245159899788E-02  0.261358955665E-02  0.278628079375E-02
  0.297037916909E-02  0.316663772858E-02  0.337585916872E-02  0.359889910173E-02  0.383666953430E-02
  0.409014257362E-02  0.436035437557E-02  0.464840935050E-02  0.495548464327E-02  0.528283490520E-02
  0.563179737652E-02  0.600379729929E-02  0.640035368190E-02  0.682308543742E-02  0.727371791970E-02
  0.775408988227E-02  0.826616088685E-02  0.881201918972E-02  0.939389013596E-02  0.100141450932E-01
  0.106753109588E-01  0.113800802754E-01  0.121313219931E-01  0.129320929171E-01  0.137856498841E-01
  0.146954627097E-01  0.156652279554E-01  0.166988835621E-01  0.178006244046E-01  0.189749188179E-01
  0.202265261552E-01  0.215605154357E-01  0.229822851454E-01  0.244975842557E-01  0.261125345285E-01
  0.278336541795E-01  0.296678829715E-01  0.316226088170E-01  0.337056959680E-01  0.359255148739E-01
  0.382909737945E-01  0.408115522506E-01  0.434973364038E-01  0.463590564511E-01  0.494081261268E-01
  0.526566844013E-01  0.561176394647E-01  0.598047150856E-01  0.637324994282E-01  0.679164964116E-01
  0.723731796846E-01  0.771200492879E-01  0.821756910627E-01  0.875598388522E-01  0.932934395345E-01
  0.993987208987E-01  0.105899262364E+00  0.112820068508E+00  0.120187645353E+00  0.128030079295E+00
  0.136377118570E+00  0.145260257035E+00  0.154712820048E+00  0.164770052117E+00  0.175469205945E+00
  0.186849632384E+00  0.198952870716E+00  0.211822738581E+00  0.225505420701E+00  0.240049555423E+00
  0.255506317932E+00  0.271929498758E+00  0.289375576017E+00  0.307903779533E+00  0.327576144740E+00
  0.348457553919E+00  0.370615761964E+00  0.394121403512E+00  0.419047977753E+00  0.445471806834E+00
  0.473471963138E+00  0.503130160183E+00  0.534530601195E+00  0.567759778698E+00  0.602906217683E+00
  0.640060154090E+00  0.679313139403E+00  0.720757561240E+00  0.764486068787E+00  0.810590890869E+00
  0.859163033400E+00  0.910291341841E+00  0.964061413239E+00  0.102055434139E+01  0.107984527777E+01
  0.114200178997E+01  0.120708199909E+01  0.127513247682E+01  0.134618588348E+01  0.142025832872E+01
  0.149734643780E+01  0.157742410871E+01  0.166043894846E+01  0.174630838119E+01  0.183491542706E+01
  0.192610415853E+01  0.201967485068E+01  0.211537885524E+01  0.221291324329E+01  0.231191528112E+01
  0.241195682660E+01  0.251253876107E+01  0.261308560366E+01  0.271294049270E+01  0.281136076098E+01
  0.290751437967E+01  0.300047759844E+01  0.308923416613E+01  0.317267657597E+01  0.324960984022E+01
  0.331875835684E+01  0.337877648326E+01  0.342826347130E+01  0.346578343760E+01  0.348989103437E+01
  0.349916343442E+01  0.349223913785E+01  0.346786392782E+01  0.342494402929E+01  0.336260613627E+01
  0.328026344443E+01  0.317768613567E+01  0.305507388584E+01  0.291312689309E+01  0.275311064607E+01
  0.257690818298E+01  0.238705197184E+01  0.218672584592E+01  0.197972578115E+01  0.177036689241E+01
  0.156332312287E+01  0.136338606268E+01  0.117513062627E+01  0.100247850500E+01  0.848156052761E+00
  0.713053569600E+00  0.595998140019E+00  0.495185697984E+00  0.408886193126E+00  0.335470088748E+00
  0.273415897650E+00  0.221314679200E+00  0.177872090418E+00  0.141908440152E+00  0.112357086185E+00
  0.882614313785E-01  0.687707336136E-01  0.531349151005E-01  0.406985473797E-01  0.308941891914E-01
  0.232352567538E-01  0.173086074432E-01  0.127670144303E-01  0.932170041284E-02  0.673508284420E-02
  0.481386189791E-02  0.340255732332E-02  0.237757317637E-02  0.164184200227E-02  0.112007404222E-02
  0.754613711402E-03  0.501885780400E-03  0.329397989509E-03  0.213255036608E-03  0.136131316033E-03
  0.856457386517E-04  0.530811667936E-04  0.323928205582E-04  0.194538409461E-04  0.114913972668E-04
  0.667270500338E-05  0.380655481824E-05  0.213202576645E-05  0.117166343432E-05  0.631357182893E-06
  0.333360294851E-06  0.172352474848E-06  0.871924233221E-07  0.431305168134E-07  0.208457116000E-07
  0.983672111382E-08  0.452849989200E-08  0.203231104199E-08
 pseudo wavefunction
  0.161184811160E-03  0.166426139074E-03  0.171837901893E-03  0.177425641734E-03  0.183195080931E-03
  0.189152127892E-03  0.195302883153E-03  0.201653645626E-03  0.208210919044E-03  0.214981418627E-03
  0.221972077959E-03  0.229190056084E-03  0.236642744840E-03  0.244337776432E-03  0.252283031243E-03
  0.260486645906E-03  0.268957021638E-03  0.277702832842E-03  0.286733035990E-03  0.296056878798E-03
  0.305683909692E-03  0.315623987592E-03  0.325887292001E-03  0.336484333438E-03  0.347425964194E-03
  0.358723389452E-03  0.370388178758E-03  0.382432277871E-03  0.394868020994E-03  0.407708143410E-03
  0.420965794520E-03  0.434654551308E-03  0.448788432251E-03  0.463381911668E-03  0.478449934547E-03
  0.494007931851E-03  0.510071836316E-03  0.526658098771E-03  0.543783704983E-03  0.561466193055E-03
  0.579723671381E-03  0.598574837195E-03  0.618038995718E-03  0.638136079926E-03  0.658886670962E-03
  0.680312019219E-03  0.702434066093E-03  0.725275466459E-03  0.748859611870E-03  0.773210654510E-03
  0.798353531930E-03  0.824313992582E-03  0.851118622192E-03  0.878794870982E-03  0.907371081782E-03
  0.936876519057E-03  0.967341398870E-03  0.998796919832E-03  0.103127529505E-02  0.106480978510E-02
  0.109943473212E-02  0.113518559495E-02  0.117209898546E-02  0.121021270601E-02  0.124956578822E-02
  0.129019853290E-02  0.133215255130E-02  0.137547080778E-02  0.142019766376E-02  0.146637892317E-02
  0.151406187934E-02  0.156329536344E-02  0.161412979450E-02  0.166661723098E-02  0.172081142417E-02
  0.177676787314E-02  0.183454388164E-02  0.189419861675E-02  0.195579316944E-02  0.201939061719E-02
  0.208505608854E-02  0.215285682977E-02  0.222286227378E-02  0.229514411118E-02  0.236977636371E-02
  0.244683545998E-02  0.252640031382E-02  0.260855240500E-02  0.269337586268E-02  0.278095755158E-02
  0.287138716087E-02  0.296475729606E-02  0.306116357375E-02  0.316070471957E-02  0.326348266923E-02
  0.336960267292E-02  0.347917340303E-02  0.359230706541E-02  0.370911951424E-02  0.382973037066E-02
  0.395426314520E-02  0.408284536419E-02  0.421560870037E-02  0.435268910762E-02  0.449422696013E-02
  0.464036719608E-02  0.479125946601E-02  0.494705828594E-02  0.510792319556E-02  0.527401892147E-02
  0.544551554576E-02  0.562258868004E-02  0.580541964516E-02  0.599419565675E-02  0.618911001671E-02
  0.639036231103E-02  0.659815861395E-02  0.681271169872E-02  0.703424125533E-02  0.726297411509E-02
  0.749914448272E-02  0.774299417575E-02  0.799477287186E-02  0.825473836409E-02  0.852315682443E-02
  0.880030307582E-02  0.908646087313E-02  0.938192319303E-02  0.968699253342E-02  0.100019812224E-01
  0.103272117374E-01  0.106630170343E-01  0.110097408877E-01  0.113677382417E-01  0.117373755721E-01
  0.121190312606E-01  0.125130959806E-01  0.129199730957E-01  0.133400790714E-01  0.137738438989E-01
  0.142217115340E-01  0.146841403488E-01  0.151616035990E-01  0.156545899054E-01  0.161636037510E-01
  0.166891659947E-01  0.172318144000E-01  0.177921041824E-01  0.183706085728E-01  0.189679193994E-01
  0.195846476885E-01  0.202214242838E-01  0.208789004856E-01  0.215577487104E-01  0.222586631712E-01
  0.229823605792E-01  0.237295808680E-01  0.245010879403E-01  0.252976704377E-01  0.261201425355E-01
  0.269693447615E-01  0.278461448404E-01  0.287514385653E-01  0.296861506945E-01  0.306512358778E-01
  0.316476796098E-01  0.326764992135E-01  0.337387448527E-01  0.348355005764E-01  0.359678853937E-01
  0.371370543817E-01  0.383441998257E-01  0.395905523941E-01  0.408773823474E-01  0.422060007827E-01
  0.435777609143E-01  0.449940593915E-01  0.464563376535E-01  0.479660833231E-01  0.495248316390E-01
  0.511341669281E-01  0.527957241174E-01  0.545111902873E-01  0.562823062657E-01  0.581108682639E-01
  0.599987295542E-01  0.619478021898E-01  0.639600587674E-01  0.660375342313E-01  0.681823277202E-01
  0.703966044561E-01  0.726825976741E-01  0.750426105935E-01  0.774790184281E-01  0.799942704365E-01
  0.825908920082E-01  0.852714867868E-01  0.880387388264E-01  0.908954147783E-01  0.938443661074E-01
  0.968885313326E-01  0.100030938289E+00  0.103274706404E+00  0.106623048991E+00  0.110079275542E+00
  0.113646794020E+00  0.117329113151E+00  0.121129844683E+00  0.125052705636E+00  0.129101520500E+00
  0.133280223393E+00  0.137592860147E+00  0.142043590321E+00  0.146636689120E+00  0.151376549189E+00
  0.156267682282E+00  0.161314720769E+00  0.166522418948E+00  0.171895654160E+00  0.177439427635E+00
  0.183158865079E+00  0.189059216921E+00  0.195145858202E+00  0.201424288052E+00  0.207900128701E+00
  0.214579123961E+00  0.221467137121E+00  0.228570148190E+00  0.235894250391E+00  0.243445645842E+00
  0.251230640321E+00  0.259255637005E+00  0.267527129086E+00  0.276051691137E+00  0.284835969079E+00
  0.293886668624E+00  0.303210542025E+00  0.312814372951E+00  0.322704959309E+00  0.332889093808E+00
  0.343373542035E+00  0.354165017795E+00  0.365270155477E+00  0.376695479141E+00  0.388447368028E+00
  0.400532018171E+00  0.412955399753E+00  0.425723209835E+00  0.438840820053E+00  0.452313218857E+00
  0.466144947843E+00  0.480340031697E+00  0.494901901246E+00  0.509833309096E+00  0.525136237305E+00
  0.540811796528E+00  0.556860116049E+00  0.573280224123E+00  0.590069918026E+00  0.607225623238E+00
  0.624742241183E+00  0.642612985009E+00  0.660829202894E+00  0.679380188483E+00  0.698252978105E+00
  0.717432134559E+00  0.736899517412E+00  0.756634039916E+00  0.776611412915E+00  0.796803876364E+00
  0.817179919451E+00  0.837703990700E+00  0.858336199936E+00  0.879032014550E+00  0.899741953170E+00
  0.920411280619E+00  0.940979708909E+00  0.961381110040E+00  0.981543247501E+00  0.100138753463E+01
  0.102082882939E+01  0.103977527671E+01  0.105812821108E+01  0.107578213392E+01  0.109262478219E+01
  0.110853730620E+01  0.112339457700E+01  0.113706564469E+01  0.114941437126E+01  0.116030026203E+01
  0.116957952066E+01  0.117710635251E+01  0.118273453959E+01  0.118631930809E+01  0.118771950464E+01
  0.118680009137E+01  0.118343496005E+01  0.117751005352E+01  0.116892676587E+01  0.115760557248E+01
  0.114348981499E+01  0.112654953563E+01  0.110678521832E+01  0.108423125180E+01  0.105895888272E+01
  0.103107837492E+01  0.100074003773E+01  0.968133733242E+00  0.933486425023E+00  0.897057294850E+00
  0.859129937276E+00  0.820001155261E+00  0.779965936006E+00  0.739298299833E+00  0.698227903516E+00
  0.656911748843E+00  0.615469440482E+00  0.574178281879E+00  0.533346259634E+00  0.493255758752E+00
  0.454161882184E+00  0.416291184355E+00  0.379840812781E+00  0.344978048749E+00  0.311840236554E+00
  0.280535091198E+00  0.251141375578E+00  0.223709938754E+00  0.198265105159E+00  0.174806399314E+00
  0.153310581484E+00  0.133733954349E+00  0.116014893910E+00  0.100076534530E+00  0.858295358541E-01
  0.731748514752E-01  0.620064210931E-01  0.522137149494E-01  0.436840712772E-01  0.363047828633E-01
  0.299649058781E-01  0.245567810063E-01  0.199772717854E-01  0.161287364391E-01  0.129197565035E-01
  0.102656482146E-01  0.808878188088E-02  0.631873181949E-02  0.489227647336E-02  0.375326622763E-02
  0.285237570588E-02  0.214675780423E-02  0.159961786506E-02
 ae wavefunction
 -0.953040298647E-02 -0.977418582817E-02 -0.100240546140E-01 -0.102801535796E-01 -0.105426298882E-01
 -0.108116336600E-01 -0.110873180004E-01 -0.113698390253E-01 -0.116593558846E-01 -0.119560307830E-01
 -0.122600289981E-01 -0.125715188950E-01 -0.128906719387E-01 -0.132176627014E-01 -0.135526688668E-01
 -0.138958712302E-01 -0.142474536931E-01 -0.146076032533E-01 -0.149765099901E-01 -0.153543670419E-01
 -0.157413705795E-01 -0.161377197711E-01 -0.165436167404E-01 -0.169592665169E-01 -0.173848769775E-01
 -0.178206587795E-01 -0.182668252830E-01 -0.187235924638E-01 -0.191911788146E-01 -0.196698052348E-01
 -0.201596949070E-01 -0.206610731611E-01 -0.211741673226E-01 -0.216992065473E-01 -0.222364216381E-01
 -0.227860448461E-01 -0.233483096519E-01 -0.239234505286E-01 -0.245117026836E-01 -0.251133017787E-01
 -0.257284836266E-01 -0.263574838634E-01 -0.270005375946E-01 -0.276578790138E-01 -0.283297409921E-01
 -0.290163546367E-01 -0.297179488171E-01 -0.304347496568E-01 -0.311669799886E-01 -0.319148587718E-01
 -0.326786004689E-01 -0.334584143800E-01 -0.342545039322E-01 -0.350670659215E-01 -0.358962897063E-01
 -0.367423563473E-01 -0.376054376937E-01 -0.384856954117E-01 -0.393832799522E-01 -0.402983294565E-01
 -0.412309685942E-01 -0.421813073331E-01 -0.431494396364E-01 -0.441354420836E-01 -0.451393724131E-01
 -0.461612679817E-01 -0.472011441390E-01 -0.482589925111E-01 -0.493347791925E-01 -0.504284428406E-01
 -0.515398926700E-01 -0.526690063433E-01 -0.538156277533E-01 -0.549795646947E-01 -0.561605864212E-01
 -0.573584210831E-01 -0.585727530443E-01 -0.598032200737E-01 -0.610494104082E-01 -0.623108596850E-01
 -0.635870477394E-01 -0.648773952674E-01 -0.661812603481E-01 -0.674979348280E-01 -0.688266405624E-01
 -0.701665255155E-01 -0.715166597176E-01 -0.728760310810E-01 -0.742435410751E-01 -0.756180002628E-01
 -0.769981237015E-01 -0.783825262132E-01 -0.797697175276E-01 -0.811580973063E-01 -0.825459500548E-01
 -0.839314399330E-01 -0.853126054744E-01 -0.866873542282E-01 -0.880534573391E-01 -0.894085440816E-01
 -0.907500963714E-01 -0.920754432734E-01 -0.933817555342E-01 -0.946660401674E-01 -0.959251351241E-01
 -0.971557040833E-01 -0.983542314045E-01 -0.995170172842E-01 -0.100640173166E+00 -0.101719617460E+00
 -0.102751071621E+00 -0.103730056667E+00 -0.104651890184E+00 -0.105511683920E+00 -0.106304342020E+00
 -0.107024560022E+00 -0.107666824683E+00 -0.108225414752E+00 -0.108694402801E+00 -0.109067658224E+00
 -0.109338851530E+00 -0.109501460075E+00 -0.109548775356E+00 -0.109473912032E+00 -0.109269818824E+00
 -0.108929291447E+00 -0.108444987768E+00 -0.107809445350E+00 -0.107015101574E+00 -0.106054316530E+00
 -0.104919398870E+00 -0.103602634823E+00 -0.102096320571E+00 -0.100392798193E+00 -0.984844953647E-01
 -0.963639690234E-01 -0.940239531833E-01 -0.914574110791E-01 -0.886575918125E-01 -0.856180916527E-01
 -0.823329201257E-01 -0.787965710008E-01 -0.750040982552E-01 -0.709511970614E-01 -0.666342898020E-01
 -0.620506170681E-01 -0.571983335438E-01 -0.520766086140E-01 -0.466857314664E-01 -0.410272203729E-01
 -0.351039357499E-01 -0.289201964975E-01 -0.224818990065E-01 -0.157966381083E-01 -0.887382911367E-02
 -0.172482995909E-02  0.563693765779E-02  0.131958694068E-01  0.209340631073E-01  0.288312086924E-01
  0.368644850297E-01  0.450084654384E-01  0.532350339299E-01  0.615133144254E-01  0.698096154539E-01
  0.780873931019E-01  0.863072352391E-01  0.944268702598E-01  0.102401203734E+00  0.110182386451E+00
  0.117719917366E+00  0.124960784936E+00  0.131849650240E+00  0.138329075181E+00  0.144339798868E+00
  0.149821065068E+00  0.154711003338E+00  0.158947066115E+00  0.162466523597E+00  0.165207017742E+00
  0.167107176080E+00  0.168107285266E+00  0.168150023444E+00  0.167181249477E+00  0.165150845941E+00
  0.162013611527E+00  0.157730197064E+00  0.152268077859E+00  0.145602553383E+00  0.137717763606E+00
  0.128607709438E+00  0.118277262891E+00  0.106743150679E+00  0.940348931469E-01  0.801956786240E-01
  0.652831516939E-01  0.493700924102E-01  0.325449623317E-01  0.149122924541E-01 -0.340711216753E-02
 -0.222761759478E-01 -0.415417881682E-01 -0.610352921158E-01 -0.805732475478E-01 -0.999584838274E-01
 -0.118981459353E+00 -0.137421941761E+00 -0.155051022175E+00 -0.171633474236E+00 -0.186930462939E+00
 -0.200702597947E+00 -0.212713311801E+00 -0.222732529289E+00 -0.230540584061E+00 -0.235932332143E+00
 -0.238721405395E+00 -0.238744539316E+00 -0.235865899876E+00 -0.229981325518E+00 -0.221022393923E+00
 -0.208960218200E+00 -0.193808873277E+00 -0.175628350451E+00 -0.154526936649E+00 -0.130662915607E+00
 -0.104245491594E+00 -0.755348431104E-01 -0.448412246506E-01 -0.125230492582E-01  0.210160966682E-01
  0.553315323718E-01  0.899426544167E-01  0.124339165766E+00  0.157988282329E+00  0.190342782912E+00
  0.220849719993E+00  0.248959599813E+00  0.274135908177E+00  0.295864997570E+00  0.313666439666E+00
  0.327103761702E+00  0.335795061872E+00  0.339422824921E+00  0.337742540312E+00  0.330590033322E+00
  0.317887471851E+00  0.299647927284E+00  0.275978310604E+00  0.247080523515E+00  0.213250737445E+00
  0.174876796973E+00  0.132433808330E+00  0.864780131426E-01  0.376390707138E-01 -0.133891119945E-01
 -0.658588491960E-01 -0.118980274658E+00 -0.171933881797E+00 -0.223883796280E+00 -0.273991549049E+00
 -0.321430095708E+00 -0.365397809931E+00 -0.405132164036E+00 -0.439922797126E+00 -0.469123657228E+00
 -0.492163892591E+00 -0.508557192957E+00 -0.517909380085E+00 -0.519924247084E+00 -0.514407864386E+00
 -0.501271638732E+00 -0.480534211266E+00 -0.452321929855E+00 -0.416867438454E+00 -0.374506031746E+00
 -0.325669723082E+00 -0.270879222271E+00 -0.210734137730E+00 -0.145901748282E+00 -0.771046957805E-01
 -0.510795597740E-02  0.692945505003E-01  0.145293356086E+00  0.222076527133E+00  0.298842140076E+00
  0.374809918848E+00  0.449231826458E+00  0.521401488080E+00  0.590662330539E+00  0.656414387753E+00
  0.718119751592E+00  0.775306677016E+00  0.827572383495E+00  0.874584616538E+00  0.916082056192E+00
  0.951873667979E+00  0.981837111221E+00  0.100591632078E+01  0.102411838542E+01  0.103650984394E+01
  0.104321251791E+01  0.104439899093E+01  0.104028783338E+01  0.103113865803E+01  0.101724707500E+01
  0.998939599737E+00  0.976568543541E+00  0.950506989491E+00  0.921143732397E+00  0.888878385596E+00
  0.854116577516E+00  0.817265309797E+00  0.778728512273E+00  0.738902836925E+00  0.698173713405E+00
  0.656911748843E+00  0.615469440482E+00  0.574178281879E+00  0.533346259634E+00  0.493255758752E+00
  0.454161882184E+00  0.416291184355E+00  0.379840812781E+00  0.344978048749E+00  0.311840236554E+00
  0.280535091198E+00  0.251141375578E+00  0.223709938754E+00  0.198265105159E+00  0.174806399314E+00
  0.153310581484E+00  0.133733954349E+00  0.116014893910E+00  0.100076534530E+00  0.858295358541E-01
  0.731748514752E-01  0.620064210931E-01  0.522137149494E-01  0.436840712772E-01  0.363047828633E-01
  0.299649058781E-01  0.245567810063E-01  0.199772717854E-01  0.161287364391E-01  0.129197565035E-01
  0.102656482146E-01  0.808878188088E-02  0.631873181949E-02  0.489227647336E-02  0.375326622763E-02
  0.285237570588E-02  0.214675780423E-02  0.159961786506E-02
 pseudo wavefunction
  0.154652021387E-03  0.159680919278E-03  0.164873344379E-03  0.170234614187E-03  0.175770219111E-03
  0.181485828092E-03  0.187387294413E-03  0.193480661691E-03  0.199772170066E-03  0.206268262590E-03
  0.212975591831E-03  0.219901026677E-03  0.227051659378E-03  0.234434812806E-03  0.242058047953E-03
  0.249929171678E-03  0.258056244696E-03  0.266447589840E-03  0.275111800578E-03  0.284057749816E-03
  0.293294598986E-03  0.302831807426E-03  0.312679142069E-03  0.322846687441E-03  0.333344855995E-03
  0.344184398769E-03  0.355376416397E-03  0.366932370478E-03  0.378864095316E-03  0.391183810032E-03
  0.403904131085E-03  0.417038085188E-03  0.430599122651E-03  0.444601131152E-03  0.459058449964E-03
  0.473985884632E-03  0.489398722145E-03  0.505312746582E-03  0.521744255282E-03  0.538710075530E-03
  0.556227581794E-03  0.574314713511E-03  0.592989993466E-03  0.612272546756E-03  0.632182120377E-03
  0.652739103445E-03  0.673964548078E-03  0.695880190956E-03  0.718508475576E-03  0.741872575241E-03
  0.765996416787E-03  0.790904705091E-03  0.816622948365E-03  0.843177484279E-03  0.870595506939E-03
  0.898905094725E-03  0.928135239055E-03  0.958315874067E-03  0.989477907278E-03  0.102165325123E-02
  0.105487485618E-02  0.108917674383E-02  0.112459404218E-02  0.116116302149E-02  0.119892113142E-02
  0.123790703940E-02  0.127816067022E-02  0.131972324688E-02  0.136263733286E-02  0.140694687568E-02
  0.145269725188E-02  0.149993531354E-02  0.154870943620E-02  0.159906956844E-02  0.165106728301E-02
  0.170475582966E-02  0.176019018963E-02  0.181742713197E-02  0.187652527171E-02  0.193754512981E-02
  0.200054919518E-02  0.206560198867E-02  0.213277012909E-02  0.220212240150E-02  0.227372982757E-02
  0.234766573833E-02  0.242400584928E-02  0.250282833789E-02  0.258421392365E-02  0.266824595070E-02
  0.275501047323E-02  0.284459634351E-02  0.293709530291E-02  0.303260207583E-02  0.313121446663E-02
  0.323303345986E-02  0.333816332353E-02  0.344671171596E-02  0.355878979593E-02  0.367451233651E-02
  0.379399784256E-02  0.391736867199E-02  0.404475116107E-02  0.417627575374E-02  0.431207713510E-02
  0.445229436933E-02  0.459707104194E-02  0.474655540683E-02  0.490090053794E-02  0.506026448596E-02
  0.522481044003E-02  0.539470689479E-02  0.557012782275E-02  0.575125285233E-02  0.593826745164E-02
  0.613136311823E-02  0.633073757501E-02  0.653659497249E-02  0.674914609766E-02  0.696860858951E-02
  0.719520716168E-02  0.742917383225E-02  0.767074816094E-02  0.792017749414E-02  0.817771721769E-02
  0.844363101800E-02  0.871819115153E-02  0.900167872306E-02  0.929438397291E-02  0.959660657348E-02
  0.990865593536E-02  0.102308515234E-01  0.105635231828E-01  0.109070114760E-01  0.112616680304E-01
  0.116278558971E-01  0.120059499210E-01  0.123963371240E-01  0.127994170988E-01  0.132156024169E-01
  0.136453190488E-01  0.140890067980E-01  0.145471197492E-01  0.150201267306E-01  0.155085117908E-01
  0.160127746916E-01  0.165334314159E-01  0.170710146925E-01  0.176260745371E-01  0.181991788111E-01
  0.187909137975E-01  0.194018847957E-01  0.200327167352E-01  0.206840548083E-01  0.213565651234E-01
  0.220509353786E-01  0.227678755564E-01  0.235081186409E-01  0.242724213569E-01  0.250615649325E-01
  0.258763558853E-01  0.267176268338E-01  0.275862373326E-01  0.284830747353E-01  0.294090550825E-01
  0.303651240182E-01  0.313522577336E-01  0.323714639402E-01  0.334237828722E-01  0.345102883192E-01
  0.356320886905E-01  0.367903281105E-01  0.379861875472E-01  0.392208859740E-01  0.404956815658E-01
  0.418118729294E-01  0.431708003699E-01  0.445738471938E-01  0.460224410479E-01  0.475180552975E-01
  0.490622104413E-01  0.506564755663E-01  0.523024698418E-01  0.540018640530E-01  0.557563821752E-01
  0.575678029893E-01  0.594379617371E-01  0.613687518187E-01  0.633621265309E-01  0.654201008464E-01
  0.675447532348E-01  0.697382275229E-01  0.720027347966E-01  0.743405553409E-01  0.767540406189E-01
  0.792456152874E-01  0.818177792488E-01  0.844731097363E-01  0.872142634302E-01  0.900439786045E-01
  0.929650772978E-01  0.959804675079E-01  0.990931454039E-01  0.102306197552E+00  0.105622803152E+00
  0.109046236268E+00  0.112579868067E+00  0.116227169034E+00  0.119991711168E+00  0.123877170152E+00
  0.127887327474E+00  0.132026072493E+00  0.136297404440E+00  0.140705434331E+00  0.145254386777E+00
  0.149948601671E+00  0.154792535734E+00  0.159790763893E+00  0.164947980457E+00  0.170269000075E+00
  0.175758758439E+00  0.181422312681E+00  0.187264841449E+00  0.193291644594E+00  0.199508142432E+00
  0.205919874530E+00  0.212532497937E+00  0.219351784822E+00  0.226383619422E+00  0.233633994238E+00
  0.241109005382E+00  0.248814846984E+00  0.256757804559E+00  0.264944247206E+00  0.273380618533E+00
  0.282073426157E+00  0.291029229639E+00  0.300254626685E+00  0.309756237448E+00  0.319540686732E+00
  0.329614583882E+00  0.339984500163E+00  0.350656943352E+00  0.361638329306E+00  0.372934950205E+00
  0.384552939185E+00  0.396498231013E+00  0.408776518471E+00  0.421393204077E+00  0.434353346728E+00
  0.447661602874E+00  0.461322161747E+00  0.475338674208E+00  0.489714174703E+00  0.504450995834E+00
  0.519550675011E+00  0.535013852655E+00  0.550840161414E+00  0.567028105830E+00  0.583574931938E+00
  0.600476486270E+00  0.617727063774E+00  0.635319244208E+00  0.653243716628E+00  0.671489091687E+00
  0.690041701552E+00  0.708885387419E+00  0.728001274768E+00  0.747367536730E+00  0.766959146217E+00
  0.786747617779E+00  0.806700740577E+00  0.826782304300E+00  0.846951820431E+00  0.867164241895E+00
  0.887369684892E+00  0.907513157562E+00  0.927534301124E+00  0.947367150245E+00  0.966939920660E+00
  0.986174833427E+00  0.100498798679E+01  0.102328928819E+01  0.104098246098E+01  0.105796514182E+01
  0.107412908736E+01  0.108936051002E+01  0.110354056515E+01  0.111654601307E+01  0.112825008136E+01
  0.113852355325E+01  0.114723610847E+01  0.115425794208E+01  0.115946168501E+01  0.116272464610E+01
  0.116393139007E+01  0.116297665734E+01  0.115976862018E+01  0.115423245446E+01  0.114631418636E+01
  0.113598474862E+01  0.112324415029E+01  0.110812562675E+01  0.109069959343E+01  0.107107717649E+01
  0.104941303755E+01  0.102590714836E+01  0.100080510809E+01  0.974396532648E+00  0.947010988716E+00
  0.919010900936E+00  0.890780838779E+00  0.862712601623E+00  0.835185581558E+00  0.808542010687E+00
  0.783056913224E+00  0.758978793127E+00  0.736779017193E+00  0.717011552961E+00  0.700257617897E+00
  0.000000000000E+00  0.000000000000E+00  0.000000000000E+00  0.000000000000E+00  0.000000000000E+00
  0.000000000000E+00  0.000000000000E+00  0.000000000000E+00  0.000000000000E+00  0.000000000000E+00
  0.000000000000E+00  0.000000000000E+00  0.000000000000E+00  0.000000000000E+00  0.000000000000E+00
  0.000000000000E+00  0.000000000000E+00  0.000000000000E+00  0.000000000000E+00  0.000000000000E+00
  0.000000000000E+00  0.000000000000E+00  0.000000000000E+00  0.000000000000E+00  0.000000000000E+00
  0.000000000000E+00  0.000000000000E+00  0.000000000000E+00  0.000000000000E+00  0.000000000000E+00
  0.000000000000E+00  0.000000000000E+00  0.000000000000E+00
 ae wavefunction
 -0.927370749392E-02 -0.951092420104E-02 -0.975406293189E-02 -0.100032640373E-01 -0.102586707167E-01
 -0.105204290472E-01 -0.107886880102E-01 -0.110635995169E-01 -0.113453184306E-01 -0.116340025873E-01
 -0.119298128128E-01 -0.122329129378E-01 -0.125434698088E-01 -0.128616532962E-01 -0.131876362981E-01
 -0.135215947401E-01 -0.138637075706E-01 -0.142141567510E-01 -0.145731272408E-01 -0.149408069767E-01
 -0.153173868458E-01 -0.157030606519E-01 -0.160980250749E-01 -0.165024796221E-01 -0.169166265716E-01
 -0.173406709068E-01 -0.177748202415E-01 -0.182192847343E-01 -0.186742769934E-01 -0.191400119684E-01
 -0.196167068311E-01 -0.201045808424E-01 -0.206038552054E-01 -0.211147529038E-01 -0.216374985245E-01
 -0.221723180632E-01 -0.227194387124E-01 -0.232790886301E-01 -0.238514966891E-01 -0.244368922040E-01
 -0.250355046367E-01 -0.256475632769E-01 -0.262732968984E-01 -0.269129333874E-01 -0.275666993433E-01
 -0.282348196493E-01 -0.289175170111E-01 -0.296150114623E-01 -0.303275198347E-01 -0.310552551908E-01
 -0.317984262176E-01 -0.325572365788E-01 -0.333318842230E-01 -0.341225606469E-01 -0.349294501095E-01
 -0.357527287960E-01 -0.365925639283E-01 -0.374491128192E-01 -0.383225218690E-01 -0.392129254993E-01
 -0.401204450236E-01 -0.410451874494E-01 -0.419872442107E-01 -0.429466898262E-01 -0.439235804811E-01
 -0.449179525281E-01 -0.459298209055E-01 -0.469591774673E-01 -0.480059892236E-01 -0.490701964867E-01
 -0.501517109193E-01 -0.512504134818E-01 -0.523661522747E-01 -0.534987402731E-01 -0.546479529491E-01
 -0.558135257787E-01 -0.569951516314E-01 -0.581924780364E-01 -0.594051043259E-01 -0.606325786487E-01
 -0.618743948557E-01 -0.631299892509E-01 -0.643987372089E-01 -0.656799496557E-01 -0.669728694117E-01
 -0.682766673964E-01 -0.695904386954E-01 -0.709131984883E-01 -0.722438778403E-01 -0.735813193592E-01
 -0.749242727203E-01 -0.762713900636E-01 -0.776212212680E-01 -0.789722091092E-01 -0.803226843093E-01
 -0.816708604868E-01 -0.830148290181E-01 -0.843525538236E-01 -0.856818660942E-01 -0.870004589724E-01
 -0.883058822117E-01 -0.895955368321E-01 -0.908666698008E-01 -0.921163687627E-01 -0.933415568544E-01
 -0.945389876354E-01 -0.957052401764E-01 -0.968367143462E-01 -0.979296263461E-01 -0.989800045424E-01
 -0.999836856546E-01 -0.100936311362E+00 -0.101833325396E+00 -0.102669971189E+00 -0.103441290170E+00
 -0.104142120776E+00 -0.104767098288E+00 -0.105310655583E+00 -0.105767024916E+00 -0.106130240834E+00
 -0.106394144360E+00 -0.106552388564E+00 -0.106598445664E+00 -0.106525615806E+00 -0.106327037663E+00
 -0.105995701024E+00 -0.105524461545E+00 -0.104906057814E+00 -0.104133130935E+00 -0.103198246802E+00
 -0.102093921254E+00 -0.100812648307E+00 -0.993469316602E-01 -0.976893196681E-01 -0.958324439724E-01
 -0.937690619900E-01 -0.914921034373E-01 -0.889947210702E-01 -0.862703458031E-01 -0.833127463572E-01
 -0.801160935681E-01 -0.766750294587E-01 -0.729847411565E-01 -0.690410396972E-01 -0.648404437214E-01
 -0.603802680191E-01 -0.556587168298E-01 -0.506749817379E-01 -0.454293439410E-01 -0.399232805849E-01
 -0.341595747761E-01 -0.281424287839E-01 -0.218775798388E-01 -0.153724178211E-01 -0.863610400897E-02
 -0.167968993166E-02  0.548376476211E-02  0.128390766379E-01  0.203688263649E-01  0.280532516469E-01
  0.358701468265E-01  0.437947709491E-01  0.517997662629E-01  0.598550893449E-01  0.679279572903E-01
  0.759828116603E-01  0.839813031329E-01  0.918823000073E-01  0.996419238645E-01  0.107213615774E+00
  0.114548236460E+00  0.121594203823E+00  0.128297671115E+00  0.134602748981E+00  0.140451774380E+00
  0.145785629193E+00  0.150544111066E+00  0.154666358697E+00  0.158091333353E+00  0.160758357906E+00
  0.162607714064E+00  0.163581297737E+00  0.163623331613E+00  0.162681133064E+00  0.160705934368E+00
  0.157653750993E+00  0.153486292327E+00  0.148171907739E+00  0.141686559245E+00  0.134014810363E+00
  0.125150818972E+00  0.115099320157E+00  0.103876583214E+00  0.915113251793E-01  0.780455615410E-01
  0.635353731817E-01  0.480515672213E-01  0.316802082809E-01  0.145229959218E-01 -0.330253626180E-02
 -0.216630240639E-01 -0.404095016729E-01 -0.593778775412E-01 -0.783896761676E-01 -0.972530626619E-01
 -0.115764165288E+00 -0.133708710065E+00 -0.150863980336E+00 -0.167001111739E+00 -0.181887727470E+00
 -0.195290908648E+00 -0.206980480713E+00 -0.216732583052E+00 -0.224333479108E+00 -0.229583557983E+00
 -0.232301472142E+00 -0.232328347382E+00 -0.229531991801E+00 -0.223811022182E+00 -0.215098819869E+00
 -0.203367223365E+00 -0.188629861178E+00 -0.170945025634E+00 -0.150417987077E+00 -0.127202648459E+00
 -0.101502443722E+00 -0.735703899375E-01 -0.437082135627E-01 -0.122644854608E-01  0.203682825202E-01
  0.537576046710E-01  0.874360511082E-01  0.120907305640E+00  0.153653174000E+00  0.185141411985E+00
  0.214834195797E+00  0.242197048257E+00  0.266708100548E+00  0.287867704676E+00  0.305208497989E+00
  0.318305840611E+00  0.326788134841E+00  0.330346366176E+00  0.328742479189E+00  0.321816501206E+00
  0.309492377791E+00  0.291782401985E+00  0.268790063624E+00  0.240711163099E+00  0.207833105080E+00
  0.170532369156E+00  0.129270216718E+00  0.845867319273E-01  0.370933170960E-01 -0.125362217548E-01
 -0.635758494660E-01 -0.115258571436E+00 -0.166788615435E+00 -0.217354321799E+00 -0.266141516084E+00
 -0.312347116996E+00 -0.355192714673E+00 -0.393937840439E+00 -0.427892636786E+00 -0.456429622851E+00
 -0.478994239719E+00 -0.495113884747E+00 -0.504405239877E+00 -0.506579893769E+00 -0.501448470471E+00
 -0.488923544700E+00 -0.469021429715E+00 -0.441862582129E+00 -0.407670180198E+00 -0.366766533758E+00
 -0.319567275327E+00 -0.266573523692E+00 -0.208362326177E+00 -0.145575715629E+00 -0.789087237526E-01
 -0.909669822496E-02  0.630977247380E-01  0.136897651382E+00  0.211524648353E+00  0.286210868334E+00
  0.360210356220E+00  0.432809335383E+00  0.503335355220E+00  0.571165189323E+00  0.635731436327E+00
  0.696527804902E+00  0.753113093254E+00  0.805113905929E+00  0.852226172383E+00  0.894215554474E+00
  0.930916839016E+00  0.962232431000E+00  0.988130064911E+00  0.100863985943E+01  0.102385084002E+01
  0.103390705285E+01  0.103900338670E+01  0.103938121063E+01  0.103532392442E+01  0.102715250479E+01
  0.101522111938E+01  0.999912859419E+00  0.981635722038E+00  0.960818749456E+00  0.937908570213E+00
  0.913366308632E+00  0.887664993665E+00  0.861287572026E+00  0.834725653571E+00  0.808479139648E+00
  0.783056913224E+00  0.758978793127E+00  0.736779017193E+00  0.717011552961E+00  0.700257617897E+00
  0.000000000000E+00  0.000000000000E+00  0.000000000000E+00  0.000000000000E+00  0.000000000000E+00
  0.000000000000E+00  0.000000000000E+00  0.000000000000E+00  0.000000000000E+00  0.000000000000E+00
  0.000000000000E+00  0.000000000000E+00  0.000000000000E+00  0.000000000000E+00  0.000000000000E+00
  0.000000000000E+00  0.000000000000E+00  0.000000000000E+00  0.000000000000E+00  0.000000000000E+00
  0.000000000000E+00  0.000000000000E+00  0.000000000000E+00  0.000000000000E+00  0.000000000000E+00
  0.000000000000E+00  0.000000000000E+00  0.000000000000E+00  0.000000000000E+00  0.000000000000E+00
  0.000000000000E+00  0.000000000000E+00  0.000000000000E+00
 pseudo wavefunction
  0.712041498876E-08  0.759102029379E-08  0.809272903207E-08  0.862759690407E-08  0.919781547645E-08
  0.980572116173E-08  0.104538047916E-07  0.111447218227E-07  0.118813032172E-07  0.126665670424E-07
  0.135037308367E-07  0.143962247937E-07  0.153477058163E-07  0.163620725010E-07  0.174434811121E-07
  0.185963626111E-07  0.198254408124E-07  0.211357517386E-07  0.225326642553E-07  0.240219020689E-07
  0.256095671796E-07  0.273021648831E-07  0.291066304259E-07  0.310303574215E-07  0.330812281447E-07
  0.352676458290E-07  0.375985690977E-07  0.400835486707E-07  0.427327664978E-07  0.455570774784E-07
  0.485680539381E-07  0.517780330447E-07  0.552001673594E-07  0.588484787273E-07  0.627379157305E-07
  0.668844149388E-07  0.713049662077E-07  0.760176822928E-07  0.810418730647E-07  0.863981246294E-07
  0.921083836775E-07  0.981960474085E-07  0.104686059398E-06  0.111605011803E-06  0.118981254318E-06
  0.126845010336E-06  0.135228500785E-06  0.144166076153E-06  0.153694357230E-06  0.163852385162E-06
  0.174681781415E-06  0.186226918317E-06  0.198535100868E-06  0.211656760564E-06  0.225645662040E-06
  0.240559123360E-06  0.256458250873E-06  0.273408189590E-06  0.291478390105E-06  0.310742893167E-06
  0.331280633048E-06  0.353175760968E-06  0.376517989897E-06  0.401402962141E-06  0.427932641227E-06
  0.456215729685E-06  0.486368114441E-06  0.518513341655E-06  0.552783122932E-06  0.589317874993E-06
  0.628267295018E-06  0.669790974009E-06  0.714059050693E-06  0.761252908642E-06  0.811565919472E-06
  0.865204235149E-06  0.922387632676E-06  0.983350414594E-06  0.104834236900E-05  0.111762979302E-05
  0.119149658393E-05  0.127024540237E-05  0.135419891243E-05  0.144370110377E-05  0.153911870100E-05
  0.164084266630E-05  0.174928980135E-05  0.186490445501E-05  0.198816034407E-05  0.211956249414E-05
  0.225964930891E-05  0.240899477617E-05  0.256821081958E-05  0.273794980592E-05  0.291890721799E-05
  0.311182450423E-05  0.331749211659E-05  0.353675274925E-05  0.377050479128E-05  0.401970600764E-05
  0.428537746328E-05  0.456860770667E-05  0.487055722985E-05  0.519246322312E-05  0.553564464405E-05
  0.590150762144E-05  0.629155121645E-05  0.670737356442E-05  0.715067842258E-05  0.762328215053E-05
  0.812712115195E-05  0.866425980813E-05  0.923689893581E-05  0.984738480386E-05  0.104982187459E-04
  0.111920674082E-04  0.119317736743E-04  0.127203683126E-04  0.135610823924E-04  0.144573605211E-04
  0.154128749560E-04  0.164315406485E-04  0.175175312825E-04  0.186752963723E-04  0.199095794902E-04
  0.212254376992E-04  0.226282622687E-04  0.241238007593E-04  0.257181805671E-04  0.274179340229E-04
  0.292300251498E-04  0.311618781892E-04  0.332214080101E-04  0.354170525284E-04  0.377578072670E-04
  0.402532621995E-04  0.429136410268E-04  0.457498430488E-04  0.487734878012E-04  0.519969626406E-04
  0.554334734720E-04  0.590970988268E-04  0.630028475117E-04  0.671667200642E-04  0.716057742660E-04
  0.763381949823E-04  0.813833686113E-04  0.867619624492E-04  0.924960092935E-04  0.986089976307E-04
  0.105125967777E-03  0.112073614363E-03  0.119480395580E-03  0.127376649637E-03  0.135794718900E-03
  0.144769082214E-03  0.154336495966E-03  0.164536144434E-03  0.175409800064E-03  0.187001994301E-03
  0.199360199694E-03  0.212535023991E-03  0.226580417029E-03  0.241553891251E-03  0.257516756749E-03
  0.274534371785E-03  0.292676409801E-03  0.312017144008E-03  0.332635750695E-03  0.354616632489E-03
  0.378049762880E-03  0.403031053381E-03  0.429662744824E-03  0.458053824355E-03  0.488320469807E-03
  0.520586523242E-03  0.554983995550E-03  0.591653604141E-03  0.630745345865E-03  0.672419107463E-03
  0.716845315965E-03  0.764205631643E-03  0.814693686253E-03  0.868515869498E-03  0.925892166822E-03
  0.987057051843E-03  0.105226043692E-02  0.112176868561E-02  0.119586569094E-02  0.127485402370E-02
  0.135905615531E-02  0.144881575982E-02  0.154449910022E-02  0.164649650429E-02  0.175522393573E-02
  0.187112466639E-02  0.199467105609E-02  0.212636644663E-02  0.226674717707E-02  0.241638472791E-02
  0.257588800182E-02  0.274590574954E-02  0.292712914963E-02  0.312029455134E-02  0.332618639052E-02
  0.354564028872E-02  0.377954634635E-02  0.402885264140E-02  0.429456894543E-02  0.457777066948E-02
  0.487960305293E-02  0.520128560889E-02  0.554411684039E-02  0.590947924216E-02  0.629884460330E-02
  0.671377962680E-02  0.715595188220E-02  0.762713610837E-02  0.812922088366E-02  0.866421568111E-02
  0.923425832662E-02  0.984162287830E-02  0.104887279452E-01  0.111781454634E-01  0.119126099478E-01
  0.126950282363E-01  0.135284897439E-01  0.144162772425E-01  0.153618781797E-01  0.163689965513E-01
  0.174415653365E-01  0.185837595052E-01  0.198000096005E-01  0.210950158996E-01  0.224737631467E-01
  0.239415358502E-01  0.255039341274E-01  0.271668900727E-01  0.289366846165E-01  0.308199648308E-01
  0.328237616251E-01  0.349555077632E-01  0.372230561136E-01  0.396346980275E-01  0.421991817181E-01
  0.449257304897E-01  0.478240606365E-01  0.509043988011E-01  0.541774985462E-01  0.576546558524E-01
  0.613477232118E-01  0.652691219358E-01  0.694318522392E-01  0.738495006016E-01  0.785362438391E-01
  0.835068492403E-01  0.887766700432E-01  0.943616354338E-01  0.100278234154E+00  0.106543490695E+00
  0.113174932948E+00  0.120190550057E+00  0.127608739087E+00  0.135448239019E+00  0.143728050397E+00
  0.152467338887E+00  0.161685320799E+00  0.171401128576E+00  0.181633654070E+00  0.192401367381E+00
  0.203722108956E+00  0.215612852581E+00  0.228089436966E+00  0.241166263674E+00  0.254855959298E+00
  0.269169000068E+00  0.284113297440E+00  0.299693743738E+00  0.315911717628E+00  0.332764550109E+00
  0.350244952848E+00  0.368340412103E+00  0.387032553220E+00  0.406296482741E+00  0.426100117620E+00
  0.446403513855E+00  0.467158210113E+00  0.488306605497E+00  0.509781394615E+00  0.531505087337E+00
  0.553389645031E+00  0.575336269433E+00  0.597235384388E+00  0.618966854107E+00  0.640400483913E+00
  0.661396849999E+00  0.681808502852E+00  0.701481583703E+00  0.720257883653E+00  0.737977359723E+00
  0.754481099702E+00  0.769614696901E+00  0.783231955521E+00  0.795198796128E+00  0.805397168227E+00
  0.813728703169E+00  0.820117757138E+00  0.824513403830E+00  0.826889845152E+00  0.827244624512E+00
  0.825593963420E+00  0.821964515218E+00  0.816380861689E+00  0.808848196224E+00  0.799329872569E+00
  0.787718142002E+00  0.773884983584E+00  0.757919515605E+00  0.739984700401E+00  0.720250753296E+00
  0.698893923723E+00  0.676095242736E+00  0.652039222655E+00  0.626912485732E+00  0.600902306687E+00
  0.574195058452E+00  0.546974565627E+00  0.519420388450E+00  0.491706081543E+00  0.463997497270E+00
  0.436451178258E+00  0.409213001568E+00  0.382417047717E+00  0.356184826902E+00  0.330624865392E+00
  0.305832656316E+00  0.281890941694E+00  0.258870262215E+00  0.236829687556E+00  0.215817626469E+00
  0.195872615504E+00  0.177023999745E+00  0.159292447521E+00  0.142690279638E+00  0.127221634950E+00
  0.112882529506E+00  0.996608885308E-01  0.875366353391E-01  0.764819098060E-01  0.664614657216E-01
  0.574332678061E-01  0.493492814240E-01  0.421564255365E-01
 ae wavefunction
  0.355088230670E-04  0.374473405078E-04  0.394878127446E-04  0.416358063002E-04  0.438971823823E-04
  0.462781130265E-04  0.487850981038E-04  0.514249832381E-04  0.542049786832E-04  0.571326792125E-04
  0.602160850765E-04  0.634636240871E-04  0.668841748903E-04  0.704870914914E-04  0.742822291031E-04
  0.782799713865E-04  0.824912591626E-04  0.869276206729E-04  0.916012034738E-04  0.965248080557E-04
  0.101711923274E-03  0.107176763699E-03  0.112934308979E-03  0.119000345330E-03  0.125391509271E-03
  0.132125333709E-03  0.139220296524E-03  0.146695871760E-03  0.154572583589E-03  0.162872063166E-03
  0.171617108556E-03  0.180831747875E-03  0.190541305824E-03  0.200772473789E-03  0.211553383706E-03
  0.222913685860E-03  0.234884630861E-03  0.247499155974E-03  0.260791976055E-03  0.274799679318E-03
  0.289560828179E-03  0.305116065437E-03  0.321508226062E-03  0.338782454868E-03  0.356986330371E-03
  0.376169995131E-03  0.396386292893E-03  0.417690912881E-03  0.440142541561E-03  0.463803022248E-03
  0.488737522932E-03  0.515014712699E-03  0.542706947149E-03  0.571890463233E-03  0.602645583917E-03
  0.635056933138E-03  0.669213661480E-03  0.705209683045E-03  0.743143924008E-03  0.783120583314E-03
  0.825249406044E-03  0.869645969941E-03  0.916431985603E-03  0.965735610889E-03  0.101769178002E-02
  0.107244254796E-02  0.113013745049E-02  0.119093388068E-02  0.125499748207E-02  0.132250255916E-02
  0.139363250576E-02  0.146858025151E-02  0.154754872714E-02  0.163075134886E-02  0.171841252216E-02
  0.181076816551E-02  0.190806625404E-02  0.201056738361E-02  0.211854535521E-02  0.223228777991E-02
  0.235209670421E-02  0.247828925565E-02  0.261119830846E-02  0.275117316872E-02  0.289858027854E-02
  0.305380393845E-02  0.321724704700E-02  0.338933185652E-02  0.357050074336E-02  0.376121699112E-02
  0.396196558472E-02  0.417325401299E-02  0.439561307695E-02  0.462959770080E-02  0.487578774184E-02
  0.513478879531E-02  0.540723298949E-02  0.569377976585E-02  0.599511663834E-02  0.631195992523E-02
  0.664505544630E-02  0.699517917707E-02  0.736313785112E-02  0.774976950052E-02  0.815594392335E-02
  0.858256306613E-02  0.903056130805E-02  0.950090563214E-02  0.999459566787E-02  0.105126635875E-01
  0.110561738375E-01  0.116262226847E-01  0.122239375550E-01  0.128504761400E-01  0.135070252477E-01
  0.141947993672E-01  0.149150389189E-01  0.156690081595E-01  0.164579927049E-01  0.172832966382E-01
  0.181462391620E-01  0.190481507556E-01  0.199903687940E-01  0.209742325841E-01  0.220010777692E-01
  0.230722300553E-01  0.241889982053E-01  0.253526662497E-01  0.265644848583E-01  0.278256618180E-01
  0.291373515581E-01  0.305006436675E-01  0.319165503448E-01  0.333859927243E-01  0.349097860228E-01
  0.364886234514E-01  0.381230588416E-01  0.398134879382E-01  0.415601283145E-01  0.433629978753E-01
  0.452218919147E-01  0.471363587121E-01  0.491056736538E-01  0.511288118859E-01  0.532044195143E-01
  0.553307833896E-01  0.575057995308E-01  0.597269402657E-01  0.619912201919E-01  0.642951610889E-01
  0.666347559444E-01  0.690054322916E-01  0.714020150900E-01  0.738186894217E-01  0.762489633162E-01
  0.786856310565E-01  0.811207373643E-01  0.835455429072E-01  0.859504916165E-01  0.883251803656E-01
  0.906583316184E-01  0.929377697427E-01  0.951504017773E-01  0.972822035474E-01  0.993182121420E-01
  0.101242525865E+00  0.103038312866E+00  0.104687829710E+00  0.106172451186E+00  0.107472712645E+00
  0.108568366175E+00  0.109438451872E+00  0.110061385451E+00  0.110415063410E+00  0.110476986879E+00
  0.110224405263E+00  0.109634480680E+00  0.108684474109E+00  0.107351954016E+00  0.105615028050E+00
  0.103452598186E+00  0.100844639401E+00  0.977725016527E-01  0.942192345585E-01  0.901699337040E-01
  0.856121070429E-01  0.805360592755E-01  0.749352914875E-01  0.688069126618E-01  0.621520589660E-01
  0.549763159610E-01  0.472901380939E-01  0.391092590392E-01  0.304550856490E-01  0.213550674881E-01
  0.118430331838E-01  0.195948413466E-02 -0.824816445680E-02 -0.187254056987E-01 -0.294105369607E-01
 -0.402346402929E-01 -0.511216575795E-01 -0.619885700789E-01 -0.727456913366E-01 -0.832970820177E-01
 -0.935410952223E-01 -0.103371061252E+00 -0.112676121139E+00 -0.121342217719E+00 -0.129253250606E+00
 -0.136292396250E+00 -0.142343587129E+00 -0.147293137428E+00 -0.151031498592E+00 -0.153455126225E+00
 -0.154468437499E+00 -0.153985834288E+00 -0.151933762416E+00 -0.148252773126E+00 -0.142899549377E+00
 -0.135848856770E+00 -0.127095376199E+00 -0.116655372828E+00 -0.104568153769E+00 -0.908972653059E-01
 -0.757313800799E-01 -0.591848255758E-01 -0.413977079553E-01 -0.225355898316E-01 -0.278868707306E-02
  0.176294418891E-01  0.384837299533E-01  0.595199593710E-01  0.804676236789E-01  0.101043245417E+00
  0.120954074456E+00  0.139902085074E+00  0.157588227570E+00  0.173716974657E+00  0.188001267582E+00
  0.200167874416E+00  0.209962922645E+00  0.217157240550E+00  0.221551286352E+00  0.222979624619E+00
  0.221314944644E+00  0.216471561410E+00  0.208408293701E+00  0.197130610571E+00  0.182691969523E+00
  0.165194312606E+00  0.144787720690E+00  0.121669246389E+00  0.960809562543E-01  0.683072182651E-01
  0.386712748577E-01  0.753114687716E-02 -0.247250790191E-01 -0.576845171799E-01 -0.909152294984E-01
 -0.123972363503E+00 -0.156404580045E+00 -0.187760655064E+00 -0.217596125297E+00 -0.245479829690E+00
 -0.271000177056E+00 -0.293770963913E+00 -0.313436600365E+00 -0.329676705746E+00 -0.342210177986E+00
 -0.350798921342E+00 -0.355251332653E+00 -0.355425424404E+00 -0.351231284895E+00 -0.342632569456E+00
 -0.329646863067E+00 -0.312344906690E+00 -0.290848765007E+00 -0.265329042359E+00 -0.236001263927E+00
 -0.203121550695E+00 -0.166981732884E+00 -0.127904055576E+00 -0.862356338407E-01 -0.423428067188E-01
  0.339447076943E-02  0.505880826087E-01  0.988469469053E-01  0.147781872995E+00  0.197010015373E+00
  0.246158878502E+00  0.294869841622E+00  0.342801188240E+00  0.389630638304E+00  0.435057394065E+00
  0.478803719016E+00  0.520616081370E+00  0.560265898676E+00  0.597549927748E+00  0.632290347549E+00
  0.664334585648E+00  0.693554938484E+00  0.719848032688E+00  0.743134169592E+00  0.763356586317E+00
  0.780480656665E+00  0.794493042695E+00  0.805400824785E+00  0.813230574696E+00  0.818027396843E+00
  0.819853931327E+00  0.818789314102E+00  0.814928099303E+00  0.808379147074E+00  0.799264483611E+00
  0.787718142002E+00  0.773884983584E+00  0.757919515605E+00  0.739984700401E+00  0.720250753296E+00
  0.698893923723E+00  0.676095242736E+00  0.652039222655E+00  0.626912485732E+00  0.600902306687E+00
  0.574195058452E+00  0.546974565627E+00  0.519420388450E+00  0.491706081543E+00  0.463997497270E+00
  0.436451178258E+00  0.409213001568E+00  0.382417047717E+00  0.356184826902E+00  0.330624865392E+00
  0.305832656316E+00  0.281890941694E+00  0.258870262215E+00  0.236829687556E+00  0.215817626469E+00
  0.195872615504E+00  0.177023999745E+00  0.159292447521E+00  0.142690279638E+00  0.127221634950E+00
  0.112882529506E+00  0.996608885308E-01  0.875366353391E-01  0.764819098060E-01  0.664614657216E-01
  0.574332678061E-01  0.493492814240E-01  0.421564255365E-01
 pseudo wavefunction
  0.817578289139E-08  0.871613999248E-08  0.929221059030E-08  0.990635507548E-08  0.105610898425E-07
  0.112590976005E-07  0.120032383651E-07  0.127965611773E-07  0.136423165966E-07  0.145439700197E-07
  0.155052158797E-07  0.165299927834E-07  0.176224996500E-07  0.187872129149E-07  0.200289048722E-07
  0.213526632280E-07  0.227639119474E-07  0.242684334780E-07  0.258723924435E-07  0.275823609022E-07
  0.294053452755E-07  0.313488150558E-07  0.334207334124E-07  0.356295898193E-07  0.379844348402E-07
  0.404949172122E-07  0.431713233804E-07  0.460246196458E-07  0.490664970982E-07  0.523094195198E-07
  0.557666744536E-07  0.594524276482E-07  0.633817811002E-07  0.675708349333E-07  0.720367533667E-07
  0.767978350438E-07  0.818735880089E-07  0.872848096395E-07  0.930536718610E-07  0.992038119944E-07
  0.105760429607E-06  0.112750389767E-06  0.120202333116E-06  0.128146793225E-06  0.136616321702E-06
  0.145645621567E-06  0.155271689445E-06  0.165533967154E-06  0.176474503318E-06  0.188138125651E-06
  0.200572624638E-06  0.213828949349E-06  0.227961416197E-06  0.243027931498E-06  0.259090228728E-06
  0.276214121475E-06  0.294469773102E-06  0.313931984231E-06  0.334680499233E-06  0.356800332967E-06
  0.380382119126E-06  0.405522481590E-06  0.432324430336E-06  0.460897783510E-06  0.491359617388E-06
  0.523834746089E-06  0.558456232981E-06  0.595365935894E-06  0.634715088363E-06  0.676664919291E-06
  0.721387313563E-06  0.769065516321E-06  0.819894883788E-06  0.874083683714E-06  0.931853948726E-06
  0.993442386077E-06  0.105910134752E-05  0.112909986327E-05  0.120372474436E-05  0.128328175776E-05
  0.136809687921E-05  0.145851762892E-05  0.155491449538E-05  0.165768245348E-05  0.176724258279E-05
  0.188404379287E-05  0.200856466261E-05  0.214131540115E-05  0.228283993831E-05  0.243371815329E-05
  0.259456825058E-05  0.276604929298E-05  0.294886390190E-05  0.314376113628E-05  0.335153956163E-05
  0.357305052202E-05  0.380920162825E-05  0.406096047652E-05  0.432935861299E-05  0.461549576022E-05
  0.492054432296E-05  0.524575419181E-05  0.559245786422E-05  0.596207590401E-05  0.635612276168E-05
  0.677621297932E-05  0.722406780567E-05  0.770152224827E-05  0.821053259169E-05  0.875318441264E-05
  0.933170112469E-05  0.994845308773E-05  0.106059673194E-04  0.113069378483E-04  0.120542367513E-04
  0.128509259204E-04  0.137002696070E-04  0.146057477952E-04  0.155710704587E-04  0.166001927599E-04
  0.176973312535E-04  0.188669811606E-04  0.201139347840E-04  0.214433011407E-04  0.228605268918E-04
  0.243714186546E-04  0.259821667894E-04  0.276993707583E-04  0.295300661585E-04  0.314817535425E-04
  0.335624291420E-04  0.357806176216E-04  0.381454069966E-04  0.406664858569E-04  0.433541830509E-04
  0.462195099897E-04  0.492742057467E-04  0.525307851355E-04  0.560025899637E-04  0.597038436718E-04
  0.636497095805E-04  0.678563529854E-04  0.723410073512E-04  0.771220448782E-04  0.822190517274E-04
  0.876529082132E-04  0.934458742899E-04  0.996216806826E-04  0.106205626033E-03  0.113224680458E-03
  0.120707595943E-03  0.128685024024E-03  0.137189641226E-03  0.146256282792E-03  0.155922085223E-03
  0.166226638225E-03  0.177212146682E-03  0.188923603305E-03  0.201408972670E-03  0.214719387389E-03
  0.228909357207E-03  0.244036991894E-03  0.260164238809E-03  0.277357136125E-03  0.295686082733E-03
  0.315226125917E-03  0.336057267974E-03  0.358264793012E-03  0.381939615257E-03  0.407178650270E-03
  0.434085210581E-03  0.462769427330E-03  0.493348699619E-03  0.525948173389E-03  0.560701251736E-03
  0.597750138737E-03  0.637246418943E-03  0.679351674889E-03  0.724238145068E-03  0.772089425015E-03
  0.823101214287E-03  0.877482112323E-03  0.935454466334E-03  0.997255274598E-03  0.106313714872E-02
  0.113336933869E-02  0.120823882470E-02  0.128805148012E-02  0.137313331007E-02  0.146383177048E-02
  0.156051717284E-02  0.166358417991E-02  0.177345339831E-02  0.189057307411E-02  0.201542089779E-02
  0.214850592566E-02  0.229037062474E-02  0.244159304914E-02  0.260278915580E-02  0.277461526841E-02
  0.295777069860E-02  0.315300053395E-02  0.336109860303E-02  0.358291062826E-02  0.381933757773E-02
  0.407133922805E-02  0.433993795057E-02  0.462622273421E-02  0.493135345866E-02  0.525656543236E-02
  0.560317421042E-02  0.597258070831E-02  0.636627662762E-02  0.678585021133E-02  0.723299234609E-02
  0.770950303023E-02  0.821729822640E-02  0.875841711866E-02  0.933502979409E-02  0.994944536959E-02
  0.106041205850E-01  0.113016688838E-01  0.120448700027E-01  0.128366800918E-01  0.136802423866E-01
  0.145788984522E-01  0.155362000204E-01  0.165559214389E-01  0.176420727495E-01  0.187989134128E-01
  0.200309666915E-01  0.213430347049E-01  0.227402141602E-01  0.242279127653E-01  0.258118663205E-01
  0.274981564807E-01  0.292932291731E-01  0.312039136463E-01  0.332374421170E-01  0.354014699684E-01
  0.377040964414E-01  0.401538857433E-01  0.427598884811E-01  0.455316633062E-01  0.484792986325E-01
  0.516134342636E-01  0.549452827341E-01  0.584866501358E-01  0.622499561576E-01  0.662482530285E-01
  0.704952429993E-01  0.750052939444E-01  0.797934526053E-01  0.848754549263E-01  0.902677328587E-01
  0.959874169267E-01  0.102052333756E+00  0.108480997667E+00  0.115292595330E+00  0.122506962358E+00
  0.130144550592E+00  0.138226384712E+00  0.146774006646E+00  0.155809406143E+00  0.165354935691E+00
  0.175433207859E+00  0.186066972970E+00  0.197278974889E+00  0.209091782622E+00  0.221527595280E+00
  0.234608017948E+00  0.248353805960E+00  0.262784575121E+00  0.277918475556E+00  0.293771827041E+00
  0.310358714038E+00  0.327690539095E+00  0.345775533932E+00  0.364618228375E+00  0.384218878406E+00
  0.404572855943E+00  0.425670004697E+00  0.447493968478E+00  0.470021500812E+00  0.493221767616E+00
  0.517055658068E+00  0.541475122608E+00  0.566422561360E+00  0.591830290951E+00  0.617620122765E+00
  0.643703090944E+00  0.669979373655E+00  0.696338456025E+00  0.722659587334E+00  0.748812587812E+00
  0.774659061251E+00  0.800054067405E+00  0.824848301992E+00  0.848890820478E+00  0.872032323352E+00
  0.894128993470E+00  0.915046838539E+00  0.934666442114E+00  0.952887962861E+00  0.969636143352E+00
  0.984864995687E+00  0.998561722939E+00  0.101074931554E+01  0.102148713583E+01  0.103086868138E+01
  0.103901561166E+01  0.104606705318E+01  0.105216318976E+01  0.105742223114E+01  0.106191007181E+01
  0.106560234863E+01  0.106844247574E+01  0.107068254133E+01  0.107268887261E+01  0.107485869210E+01
  0.000000000000E+00  0.000000000000E+00  0.000000000000E+00  0.000000000000E+00  0.000000000000E+00
  0.000000000000E+00  0.000000000000E+00  0.000000000000E+00  0.000000000000E+00  0.000000000000E+00
  0.000000000000E+00  0.000000000000E+00  0.000000000000E+00  0.000000000000E+00  0.000000000000E+00
  0.000000000000E+00  0.000000000000E+00  0.000000000000E+00  0.000000000000E+00  0.000000000000E+00
  0.000000000000E+00  0.000000000000E+00  0.000000000000E+00  0.000000000000E+00  0.000000000000E+00
  0.000000000000E+00  0.000000000000E+00  0.000000000000E+00  0.000000000000E+00  0.000000000000E+00
  0.000000000000E+00  0.000000000000E+00  0.000000000000E+00
 ae wavefunction
  0.416402565639E-04  0.439135045419E-04  0.463063122101E-04  0.488252072819E-04  0.514770630403E-04
  0.542691172680E-04  0.572089921915E-04  0.603047154924E-04  0.635647424444E-04  0.669979792372E-04
  0.706138075526E-04  0.744221104625E-04  0.784332997197E-04  0.826583445190E-04  0.871088018070E-04
  0.917968482285E-04  0.967353137945E-04  0.101937717369E-03  0.107418304069E-03  0.113192084693E-03
  0.119274877263E-03  0.125683350830E-03  0.132435071631E-03  0.139548551745E-03  0.147043300377E-03
  0.154939877904E-03  0.163259952847E-03  0.172026361905E-03  0.181263173229E-03  0.190995753105E-03
  0.201250836220E-03  0.212056599713E-03  0.223442741190E-03  0.235440560938E-03  0.248083048531E-03
  0.261404974082E-03  0.275442984352E-03  0.290235704006E-03  0.305823842239E-03  0.322250305086E-03
  0.339560313675E-03  0.357801528748E-03  0.377024181744E-03  0.397281212801E-03  0.418628415992E-03
  0.441124592177E-03  0.464831709830E-03  0.489815074238E-03  0.516143505478E-03  0.543889525586E-03
  0.573129555351E-03  0.603944121212E-03  0.636418072684E-03  0.670640810844E-03  0.706706528332E-03
  0.744714461427E-03  0.784769154687E-03  0.826980738732E-03  0.871465221703E-03  0.918344794990E-03
  0.967748153791E-03  0.101981083312E-02  0.107467555983E-02  0.113249262131E-02  0.119342025145E-02
  0.125762503438E-02  0.132528232690E-02  0.139657669976E-02  0.147170239888E-02  0.155086382666E-02
  0.163427604431E-02  0.172216529546E-02  0.181476955179E-02  0.191233908102E-02  0.201513703777E-02
  0.212344007760E-02  0.223753899466E-02  0.235773938311E-02  0.248436232246E-02  0.261774508696E-02
  0.275824187895E-02  0.290622458597E-02  0.306208356131E-02  0.322622842752E-02  0.339908890218E-02
  0.358111564504E-02  0.377278112536E-02  0.397458050808E-02  0.418703255719E-02  0.441068055416E-02
  0.464609322912E-02  0.489386570207E-02  0.515462043075E-02  0.542900816166E-02  0.571770887987E-02
  0.602143275282E-02  0.634092106277E-02  0.667694712168E-02  0.703031716157E-02  0.740187119289E-02
  0.779248382198E-02  0.820306501839E-02  0.863456082122E-02  0.908795397290E-02  0.956426446750E-02
  0.100645499993E-01  0.105899062958E-01  0.111414673193E-01  0.117204053160E-01  0.123279306951E-01
  0.129652917137E-01  0.136337739449E-01  0.143346995019E-01  0.150694259915E-01  0.158393451650E-01
  0.166458812364E-01  0.174904888305E-01  0.183746505252E-01  0.192998739484E-01  0.202676883857E-01
  0.212796408550E-01  0.223372916010E-01  0.234422089574E-01  0.245959635261E-01  0.258001216165E-01
  0.270562378883E-01  0.283658471361E-01  0.297304551562E-01  0.311515286285E-01  0.326304839501E-01
  0.341686749531E-01  0.357673794391E-01  0.374277844627E-01  0.391509702978E-01  0.409378930194E-01
  0.427893656382E-01  0.447060377284E-01  0.466883734899E-01  0.487366281976E-01  0.508508229921E-01
  0.530307179780E-01  0.552757836066E-01  0.575851703302E-01  0.599576765341E-01  0.623917147650E-01
  0.648852762997E-01  0.674358941179E-01  0.700406043700E-01  0.726959064619E-01  0.753977219101E-01
  0.781413521576E-01  0.809214355820E-01  0.837319039685E-01  0.865659387664E-01  0.894159274958E-01
  0.922734207190E-01  0.951290900433E-01  0.979726876718E-01  0.100793008080E+00  0.103577852458E+00
  0.106313996636E+00  0.108987163309E+00  0.111581999478E+00  0.114082060170E+00  0.116469799614E+00
  0.118726571176E+00  0.120832637480E+00  0.122767192178E+00  0.124508394896E+00  0.126033420876E+00
  0.127318526842E+00  0.128339134560E+00  0.129069933568E+00  0.129485004477E+00  0.129557964188E+00
  0.129262134315E+00  0.128570733991E+00  0.127457098125E+00  0.125894922023E+00  0.123858533052E+00
  0.121323189796E+00  0.118265408802E+00  0.114663318660E+00  0.110497040680E+00  0.105749094940E+00
  0.100404829889E+00  0.944528730268E-01  0.878855994743E-01  0.806996144649E-01  0.728962449514E-01
  0.644820346358E-01  0.554692358148E-01  0.458762904938E-01  0.357282922823E-01  0.250574196638E-01
  0.139033303575E-01  0.231350568728E-02 -0.965646680793E-02 -0.219426847961E-01 -0.344728091376E-01
 -0.471660408980E-01 -0.599332094191E-01 -0.726769827660E-01 -0.852922110766E-01 -0.976664128333E-01
 -0.109680414091E+00 -0.121209151168E+00 -0.132122647716E+00 -0.142287176461E+00 -0.151566613052E+00
 -0.159823983422E+00 -0.166923197653E+00 -0.172730955548E+00 -0.177118804383E+00 -0.179965327161E+00
 -0.181158436903E+00 -0.180597747925E+00 -0.178196989420E+00 -0.173886421559E+00 -0.167615210332E+00
 -0.159353713980E+00 -0.149095630762E+00 -0.136859954829E+00 -0.122692684418E+00 -0.106668224770E+00
 -0.888904276652E-01 -0.694932105879E-01 -0.486407016842E-01 -0.265268620293E-01 -0.337454432682E-02
  0.205660429963E-01  0.450194846505E-01  0.696879213361E-01  0.942544028250E-01  0.118386774804E+00
  0.141742011283E+00  0.163970896518E+00  0.184723004525E+00  0.203652023279E+00  0.220421546634E+00
  0.234711348711E+00  0.246223862027E+00  0.254690430912E+00  0.259877081117E+00  0.261589758146E+00
  0.259679028267E+00  0.254044172772E+00  0.244636552085E+00  0.231462112372E+00  0.214582944987E+00
  0.194117859388E+00  0.170241970110E+00  0.143185322108E+00  0.113230590750E+00  0.807098990841E-01
  0.460007999768E-01  0.952147672535E-02 -0.282747758639E-01 -0.669057164980E-01 -0.105866880848E+00
 -0.144638759789E+00 -0.182694312672E+00 -0.219506680052E+00 -0.254556943217E+00 -0.287341756694E+00
 -0.317380655084E+00 -0.344222827737E+00 -0.367453194401E+00 -0.386697736638E+00 -0.401628206713E+00
 -0.411966431128E+00 -0.417488327409E+00 -0.418027493450E+00 -0.413478019554E+00 -0.403796164984E+00
 -0.389000711998E+00 -0.369171988457E+00 -0.344449650205E+00 -0.315029348560E+00 -0.281158420092E+00
 -0.243130749226E+00 -0.201280973031E+00 -0.155978208020E+00 -0.107619483152E+00 -0.566230537258E-01
 -0.342175928404E-02  0.515434403818E-01  0.107829625533E+00  0.164997682184E+00  0.222617596879E+00
  0.280273227006E+00  0.337566510797E+00  0.394121099345E+00  0.449585408675E+00  0.503635105124E+00
  0.555975047285E+00  0.606340721969E+00  0.654499217890E+00  0.700249789968E+00  0.743424071592E+00
  0.783885996342E+00  0.821531490960E+00  0.856287998961E+00  0.888113889508E+00  0.916997797128E+00
  0.942957929188E+00  0.966041354589E+00  0.986323352546E+00  0.100390672670E+01  0.101892120426E+01
  0.103152288958E+01  0.104189380025E+01  0.105024152071E+01  0.105679901062E+01  0.106182461679E+01
  0.106560234863E+01  0.106844247574E+01  0.107068254133E+01  0.107268887261E+01  0.107485869210E+01
  0.000000000000E+00  0.000000000000E+00  0.000000000000E+00  0.000000000000E+00  0.000000000000E+00
  0.000000000000E+00  0.000000000000E+00  0.000000000000E+00  0.000000000000E+00  0.000000000000E+00
  0.000000000000E+00  0.000000000000E+00  0.000000000000E+00  0.000000000000E+00  0.000000000000E+00
  0.000000000000E+00  0.000000000000E+00  0.000000000000E+00  0.000000000000E+00  0.000000000000E+00
  0.000000000000E+00  0.000000000000E+00  0.000000000000E+00  0.000000000000E+00  0.000000000000E+00
  0.000000000000E+00  0.000000000000E+00  0.000000000000E+00  0.000000000000E+00  0.000000000000E+00
  0.000000000000E+00  0.000000000000E+00  0.000000000000E+00
 pseudo wavefunction
  0.882881791171E-13  0.971840134211E-13  0.106976183665E-12  0.117755003821E-12  0.129619887810E-12
  0.142680266408E-12  0.157056596534E-12  0.172881472232E-12  0.190300847600E-12  0.209475382934E-12
  0.230581926509E-12  0.253815145669E-12  0.279389322258E-12  0.307540328957E-12  0.338527804758E-12
  0.372637549637E-12  0.410184160506E-12  0.451513932770E-12  0.497008054235E-12  0.547086120834E-12
  0.602210006595E-12  0.662888123540E-12  0.729680110816E-12  0.803201996283E-12  0.884131878198E-12
  0.973216179363E-12  0.107127653145E-11  0.117921735296E-11  0.129803419077E-11  0.142882290213E-11
  0.157278976186E-11  0.173126258787E-11  0.190570298781E-11  0.209771983952E-11  0.230908412990E-11
  0.254174528884E-11  0.279784916895E-11  0.307975783698E-11  0.339007135933E-11  0.373165178266E-11
  0.410764953082E-11  0.452153246144E-11  0.497711785025E-11  0.547860759817E-11  0.603062698576E-11
  0.663826733259E-11  0.730713295486E-11  0.804339285452E-11  0.885383761645E-11  0.974594203863E-11
  0.107279340728E-10  0.118088707115E-10  0.129987215216E-10  0.143084605944E-10  0.157501677605E-10
  0.173371400032E-10  0.190840140979E-10  0.210069016078E-10  0.231235374828E-10  0.254534436303E-10
  0.280181089672E-10  0.308411876143E-10  0.339487170605E-10  0.373693583082E-10  0.411346602172E-10
  0.452793504818E-10  0.498416559281E-10  0.548636550829E-10  0.603916662683E-10  0.664766747997E-10
  0.731748032278E-10  0.805478289626E-10  0.886637540521E-10  0.975974323716E-10  0.107431260008E-09
  0.118255935209E-09  0.130171294897E-09  0.143287235482E-09  0.157724726440E-09  0.173616926035E-09
  0.191110409443E-09  0.210366520636E-09  0.231562860476E-09  0.254894924740E-09  0.280577907207E-09
  0.308848684412E-09  0.339968000384E-09  0.374222871521E-09  0.411929233775E-09  0.453434856572E-09
  0.499122550329E-09  0.549413697167E-09  0.604772137373E-09  0.665708447461E-09  0.732784649294E-09
  0.806619393688E-09  0.887893666322E-09  0.977357068576E-09  0.107583473122E-08  0.118423492471E-08
  0.130355743638E-08  0.143490279156E-08  0.157948240400E-08  0.173862974894E-08  0.191381266198E-08
  0.210664687726E-08  0.231891092972E-08  0.255256255885E-08  0.280975676546E-08  0.309286568767E-08
  0.340450047979E-08  0.374753539564E-08  0.412513429854E-08  0.454077984259E-08  0.499830559414E-08
  0.550193138997E-08  0.605630225827E-08  0.666653126123E-08  0.733824665471E-08  0.807764379973E-08
  0.889154230472E-08  0.978744892566E-08  0.107736268041E-07  0.118591716821E-07  0.130540957963E-07
  0.143694202266E-07  0.158172765488E-07  0.174110187317E-07  0.191653463085E-07  0.210964399600E-07
  0.232221107604E-07  0.255619644611E-07  0.281375823298E-07  0.309727202116E-07  0.340935276499E-07
  0.375287890865E-07  0.413101893690E-07  0.454726060117E-07  0.500544309085E-07  0.550979244657E-07
  0.606496054208E-07  0.667606799446E-07  0.734875139861E-07  0.808921532175E-07  0.890428953773E-07
  0.980149202924E-07  0.107890983393E-06  0.118762179119E-06  0.130728781265E-06  0.143901168013E-06
  0.158400840201E-06  0.174361542208E-06  0.191930495820E-06  0.211269758453E-06  0.232557718266E-06
  0.255990739982E-06  0.281784976595E-06  0.310178363692E-06  0.341432814807E-06  0.375836638072E-06
  0.413707196480E-06  0.455393836329E-06  0.501281110891E-06  0.551792329075E-06  0.607393461868E-06
  0.668597442639E-06  0.735968901030E-06  0.810129374187E-06  0.891763043468E-06  0.981623049663E-06
  0.108053844509E-05  0.118942184684E-05  0.130927786192E-05  0.144121236225E-05  0.158644269520E-05
  0.174630892427E-05  0.192228620375E-05  0.211599840206E-05  0.232923309968E-05  0.256395810069E-05
  0.282233961084E-05  0.310676225033E-05  0.341985108707E-05  0.376449589435E-05  0.414387785808E-05
  0.456149898107E-05  0.502121445750E-05  0.552726831775E-05  0.608433267490E-05  0.669755093733E-05
  0.737258538911E-05  0.811566958076E-05  0.893366601766E-05  0.983412968343E-05  0.108253779897E-04
  0.119165678049E-04  0.131177802794E-04  0.144401142607E-04  0.158957891693E-04  0.174982582986E-04
  0.192623335983E-04  0.212043231105E-04  0.233421823466E-04  0.256956810265E-04  0.282865867460E-04
  0.311388673007E-04  0.342789135717E-04  0.377357850759E-04  0.415414804989E-04  0.457312357711E-04
  0.503438525088E-04  0.554220599391E-04  0.610129137477E-04  0.671682356493E-04  0.739450978748E-04
  0.814063572087E-04  0.896212436947E-04  0.986660096661E-04  0.108624645349E-03  0.119589667949E-03
  0.131662991862E-03  0.144956888454E-03  0.159595044762E-03  0.175713731454E-03  0.193463091503E-03
  0.213008562237E-03  0.234532444822E-03  0.258235636717E-03  0.284339544344E-03  0.313088195077E-03
  0.344750569750E-03  0.379623179188E-03  0.418032910848E-03  0.460340174555E-03  0.506942379480E-03
  0.558277778122E-03  0.614829717013E-03  0.677131338321E-03  0.745770781481E-03  0.821396939533E-03
  0.904725831009E-03  0.996547655153E-03  0.109773460594E-02  0.120924952904E-02  0.133215551540E-02
  0.146762653606E-02  0.161695923475E-02  0.178158600823E-02  0.196308951947E-02  0.216321880553E-02
  0.238390716072E-02  0.262729199647E-02  0.289573690278E-02  0.319185616202E-02  0.351854199467E-02
  0.387899484873E-02  0.427675708024E-02  0.471575041144E-02  0.520031759696E-02  0.573526877623E-02
  0.632593304268E-02  0.697821581847E-02  0.769866268552E-02  0.849453039208E-02  0.937386582703E-02
  0.103455938321E-01  0.114196148056E-01  0.126069131371E-01  0.139196776022E-01  0.153714349390E-01
  0.169771979134E-01  0.187536292706E-01  0.207192230451E-01  0.228945047659E-01  0.253022521396E-01
  0.279677378084E-01  0.309189957605E-01  0.341871128916E-01  0.378065470805E-01  0.418154729084E-01
  0.462561558173E-01  0.511753550278E-01  0.566247548954E-01  0.626614235400E-01  0.693482964936E-01
  0.767546817346E-01  0.849567807599E-01  0.940382182463E-01  0.104090570309E+00  0.115213878341E+00
  0.127517131868E+00  0.141118699752E+00  0.156146684444E+00  0.172739168799E+00  0.191044319408E+00
  0.211220304477E+00  0.233434978360E+00  0.257865279167E+00  0.284696280938E+00  0.314119838242E+00
  0.346332759609E+00  0.381534447780E+00  0.419923950530E+00  0.461696377085E+00  0.507038653196E+00
  0.556124614069E+00  0.609109469720E+00  0.666123722456E+00  0.727266670951E+00  0.792599698222E+00
  0.862139608426E+00  0.935852344017E+00  0.101364747149E+01  0.109537385824E+01  0.118081695862E+01
  0.126969806381E+01  0.136179158148E+01  0.145730839247E+01  0.155660876818E+01  0.166009913491E+01
  0.000000000000E+00  0.000000000000E+00  0.000000000000E+00  0.000000000000E+00  0.000000000000E+00
  0.000000000000E+00  0.000000000000E+00  0.000000000000E+00  0.000000000000E+00  0.000000000000E+00
  0.000000000000E+00  0.000000000000E+00  0.000000000000E+00  0.000000000000E+00  0.000000000000E+00
  0.000000000000E+00  0.000000000000E+00  0.000000000000E+00  0.000000000000E+00  0.000000000000E+00
  0.000000000000E+00  0.000000000000E+00  0.000000000000E+00  0.000000000000E+00  0.000000000000E+00
  0.000000000000E+00  0.000000000000E+00  0.000000000000E+00  0.000000000000E+00  0.000000000000E+00
  0.000000000000E+00  0.000000000000E+00  0.000000000000E+00
 ae wavefunction
 -0.351848711117E-07 -0.383168581519E-07 -0.417125014057E-07 -0.453952336817E-07 -0.493904808710E-07
 -0.537258395312E-07 -0.584312697865E-07 -0.635393049078E-07 -0.690852790676E-07 -0.751075748976E-07
 -0.816478926176E-07 -0.887515426626E-07 -0.964677639084E-07 -0.104850069775E-06 -0.113956624700E-06
 -0.123850653685E-06 -0.134600887874E-06 -0.146282049365E-06 -0.158975378770E-06 -0.172769209332E-06
 -0.187759591747E-06 -0.204050974238E-06 -0.221756942803E-06 -0.241001027025E-06 -0.261917577294E-06
 -0.284652719853E-06 -0.309365396605E-06 -0.336228497300E-06 -0.365430092369E-06 -0.397174775407E-06
 -0.431685125189E-06 -0.469203297889E-06 -0.509992761237E-06 -0.554340183340E-06 -0.602557490071E-06
 -0.654984106195E-06 -0.711989396730E-06 -0.773975326606E-06 -0.841379358231E-06 -0.914677608420E-06
 -0.994388288051E-06 -0.108107544991E-05 -0.117535307255E-05 -0.127788951041E-05 -0.138941234329E-05
 -0.151071366120E-05 -0.164265582383E-05 -0.178617773751E-05 -0.194230169641E-05 -0.211214083884E-05
 -0.229690727420E-05 -0.249792094113E-05 -0.271661926288E-05 -0.295456767175E-05 -0.321347108111E-05
 -0.349518639045E-05 -0.380173611652E-05 -0.413532325219E-05 -0.449834746361E-05 -0.489342274602E-05
 -0.532339666980E-05 -0.579137135937E-05 -0.630072636105E-05 -0.685514356921E-05 -0.745863439547E-05
 -0.811556938200E-05 -0.883071047758E-05 -0.960924621467E-05 -0.104568300465E-04 -0.113796221256E-04
 -0.123843348313E-04 -0.134782823779E-04 -0.146694348670E-04 -0.159664771768E-04 -0.173788731173E-04
 -0.189169353136E-04 -0.205919013249E-04 -0.224160165433E-04 -0.244026244699E-04 -0.265662650099E-04
 -0.289227814875E-04 -0.314894371367E-04 -0.342850418905E-04 -0.373300903556E-04 -0.406469119361E-04
 -0.442598341478E-04 -0.481953602478E-04 -0.524823623989E-04 -0.571522916817E-04 -0.622394063768E-04
 -0.677810200480E-04 -0.738177710795E-04 -0.803939154487E-04 -0.875576446524E-04 -0.953614308499E-04
 -0.103862401444E-03 -0.113122745484E-03 -0.123210154448E-03 -0.134198300161E-03 -0.146167352771E-03
 -0.159204541953E-03 -0.173404764695E-03 -0.188871243264E-03 -0.205716237190E-03 -0.224061813348E-03
 -0.244040678487E-03 -0.265797078818E-03 -0.289487771564E-03 -0.315283073634E-03 -0.343367992909E-03
 -0.373943447913E-03 -0.407227581923E-03 -0.443457177915E-03 -0.482889180991E-03 -0.525802335281E-03
 -0.572498942537E-03 -0.623306749962E-03 -0.678580975017E-03 -0.738706475200E-03 -0.804100070974E-03
 -0.875213030146E-03 -0.952533722127E-03 -0.103659045050E-02 -0.112795447230E-02 -0.122724321226E-02
 -0.133512368009E-02 -0.145231609839E-02 -0.157959774845E-02 -0.171780704037E-02 -0.186784781323E-02
 -0.203069386994E-02 -0.220739374997E-02 -0.239907574191E-02 -0.260695313559E-02 -0.283232971156E-02
 -0.307660546295E-02 -0.334128254195E-02 -0.362797141949E-02 -0.393839724271E-02 -0.427440637066E-02
 -0.463797306288E-02 -0.503120629036E-02 -0.545635663144E-02 -0.591582320809E-02 -0.641216060995E-02
 -0.694808574428E-02 -0.752648454056E-02 -0.815041842704E-02 -0.882313048526E-02 -0.954805117532E-02
 -0.103288035109E-01 -0.111692075477E-01 -0.120732840339E-01 -0.130452570513E-01 -0.140895554594E-01
 -0.152108129331E-01 -0.164138663614E-01 -0.177037523498E-01 -0.190857015456E-01 -0.205651304720E-01
 -0.221476305322E-01 -0.238389538167E-01 -0.256449953237E-01 -0.275717711839E-01 -0.296253924767E-01
 -0.318120342150E-01 -0.341378990848E-01 -0.366091755244E-01 -0.392319897324E-01 -0.420123511925E-01
 -0.449560913068E-01 -0.480687947287E-01 -0.513557230010E-01 -0.548217301201E-01 -0.584711696803E-01
 -0.623077932964E-01 -0.663346400687E-01 -0.705539169396E-01 -0.749668698996E-01 -0.795736461247E-01
 -0.843731472873E-01 -0.893628744455E-01 -0.945387651224E-01 -0.998950234071E-01 -0.105423944155E+00
 -0.111115732642E+00 -0.116958321321E+00 -0.122937185646E+00 -0.129035161287E+00 -0.135232265365E+00
 -0.141505524777E+00 -0.147828814970E+00 -0.154172712950E+00 -0.160504368651E+00 -0.166787399110E+00
 -0.172981810216E+00 -0.179043951015E+00 -0.184926505706E+00 -0.190578528424E+00 -0.195945525739E+00
 -0.200969591443E+00 -0.205589597740E+00 -0.209741446698E+00 -0.213358386010E+00 -0.216371394005E+00
 -0.218709640317E+00 -0.220301030159E+00 -0.221072840889E+00 -0.220952458408E+00 -0.219868217195E+00
 -0.217750341221E+00 -0.214531975876E+00 -0.210150297026E+00 -0.204547683608E+00 -0.197672942416E+00
 -0.189482573803E+00 -0.179942064596E+00 -0.169027191092E+00 -0.156725312339E+00 -0.143036632138E+00
 -0.127975406649E+00 -0.111571072661E+00 -0.938692695243E-01 -0.749327256523E-01 -0.548419787748E-01
 -0.336958981716E-01 -0.116119771079E-01  0.112736350340E-01  0.348063889210E-01  0.588139038897E-01
  0.831068679009E-01  0.107480279976E+00  0.131715033795E+00  0.155579821001E+00  0.178833305840E+00
  0.201226500599E+00  0.222505279600E+00  0.242413036031E+00  0.260693606708E+00  0.277094669482E+00
  0.291371675563E+00  0.303292039002E+00  0.312639160950E+00  0.319216089638E+00  0.322848861663E+00
  0.323389602653E+00  0.320719377988E+00  0.314750710614E+00  0.305429666172E+00  0.292737435256E+00
  0.276691386530E+00  0.257345597266E+00  0.234790883285E+00  0.209154352924E+00  0.180598506465E+00
  0.149319897628E+00  0.115547369972E+00  0.795398795791E-01  0.415839174269E-01  0.199055043551E-02
 -0.389078909651E-01 -0.807614399822E-01 -0.123206384120E+00 -0.165869352567E+00 -0.208371511088E+00
 -0.250332743235E+00 -0.291375668995E+00 -0.331129360196E+00 -0.369232701926E+00 -0.405337514592E+00
 -0.439111693678E+00 -0.470242596092E+00 -0.498440671098E+00 -0.523443073998E+00 -0.545016899804E+00
 -0.562961773490E+00 -0.577111686132E+00 -0.587336065383E+00 -0.593540102471E+00 -0.595664364471E+00
 -0.593683728300E+00 -0.587605694176E+00 -0.577468153876E+00 -0.563336708687E+00 -0.545301634960E+00
 -0.523474614545E+00 -0.497985290396E+00 -0.468977781406E+00 -0.436607197889E+00 -0.401036239478E+00
 -0.362431927791E+00 -0.320962516757E+00 -0.276794617236E+00 -0.230090561257E+00 -0.181006023876E+00
 -0.129687909664E+00 -0.762725059350E-01 -0.208838951369E-01  0.363673873142E-01  0.953854709462E-01
  0.156090071652E+00  0.218417250743E+00  0.282320050801E+00  0.347769051068E+00  0.414752886200E+00
  0.483278770570E+00  0.553373060887E+00  0.625081926432E+00  0.698472080107E+00  0.773631687486E+00
  0.850671419955E+00  0.929725701616E+00  0.101095417771E+01  0.109454344363E+01  0.118070908151E+01
  0.126969806381E+01  0.136179158148E+01  0.145730839247E+01  0.155660876818E+01  0.166009913491E+01
  0.000000000000E+00  0.000000000000E+00  0.000000000000E+00  0.000000000000E+00  0.000000000000E+00
  0.000000000000E+00  0.000000000000E+00  0.000000000000E+00  0.000000000000E+00  0.000000000000E+00
  0.000000000000E+00  0.000000000000E+00  0.000000000000E+00  0.000000000000E+00  0.000000000000E+00
  0.000000000000E+00  0.000000000000E+00  0.000000000000E+00  0.000000000000E+00  0.000000000000E+00
  0.000000000000E+00  0.000000000000E+00  0.000000000000E+00  0.000000000000E+00  0.000000000000E+00
  0.000000000000E+00  0.000000000000E+00  0.000000000000E+00  0.000000000000E+00  0.000000000000E+00
  0.000000000000E+00  0.000000000000E+00  0.000000000000E+00
 End of Dataset
  PAW_PBE I 08Apr2002                    
   7.00000000000000     
 parameters from PSCTR are:
   SHA256 =  e40f3f59b681c1fc3e3091736183c4589116986673d2b852a5012aec72758799 I/POTCAR
   COPYR  = (c) Copyright 08Apr2002 Georg Kresse
   COPYR  = This file is part of the software VASP. Any use, copying, and all other rights are regulated by the VASP license agreement.
   COPYR  = If you do not have a valid VASP license, you may not use, copy or distribute this file.
   VRHFIN =I : s2p5
   LEXCH  = PE
   EATOM  =   315.8678 eV,   23.2156 Ry

   TITEL  = PAW_PBE I 08Apr2002
   LULTRA =        F    use ultrasoft PP ?
   IUNSCR =        1    unscreen: 0-lin 1-nonlin 2-no
   RPACOR =    2.200    partial core radius
   POMASS =  126.904; ZVAL   =    7.000    mass and valenz
   RCORE  =    2.300    outmost cutoff radius
   RWIGS  =    2.810; RWIGS  =    1.487    wigner-seitz radius (au A)
   ENMAX  =  175.647; ENMIN  =  131.735 eV
   ICORE  =        3    local potential
   LCOR   =        T    correct aug charges
   LPAW   =        T    paw PP
   EAUG   =  370.139
   DEXC   =    0.000
   RMAX   =    2.359    core radius for proj-oper
   RAUG   =    1.300    factor for augmentation sphere
   RDEP   =    2.392    radius for radial grids
   RDEPT  =    2.170    core radius for aug-charge
 
   Atomic configuration
   13 entries
     n  l   j            E        occ.
     1  0  0.50    -32976.3739   2.0000
     2  0  0.50     -5094.5933   2.0000
     2  1  1.50     -4572.0131   6.0000
     3  0  0.50     -1028.2813   2.0000
     3  1  1.50      -859.0250   6.0000
     3  2  2.50      -605.7620  10.0000
     4  0  0.50      -180.5540   2.0000
     4  1  1.50      -127.5306   6.0000
     4  2  2.50       -50.2720  10.0000
     5  0  0.50       -17.4058   2.0000
     5  1  0.50        -7.0851   5.0000
     5  2  1.50        -7.0750   0.0000
     4  3  2.50        -7.0750   0.0000
   Description
     l       E           TYP  RCUT    TYP  RCUT
     0    -17.4058016     23  2.300
     0    -18.7663842     23  2.300
     1     -7.0850686     23  2.300
     1     -4.2150896     23  2.300
     2     -7.0750295     23  2.300
     3     -1.3605826     23  2.300
   Error from kinetic energy argument (eV)
   NDATA  =      100
   STEP   =   20.000   1.050
  49.9      46.0      44.0      40.3      38.5      35.1      31.9      30.3
  27.4      24.7      23.4      21.0      18.8      16.7      14.9      13.2
  11.7      10.3      9.09      7.49      6.57      5.75      4.69      4.09
  3.56      2.89      2.34      2.02      1.63      1.31      1.06     0.848
 0.681     0.546     0.438     0.351     0.261     0.208     0.154     0.123
 0.908E-01 0.667E-01 0.488E-01 0.355E-01 0.258E-01 0.188E-01 0.138E-01 0.957E-02
 0.743E-02 0.580E-02 0.493E-02 0.457E-02 0.434E-02 0.421E-02 0.404E-02 0.381E-02
 0.351E-02 0.307E-02 0.259E-02 0.213E-02 0.173E-02 0.142E-02 0.121E-02 0.107E-02
 0.100E-02 0.955E-03 0.905E-03 0.832E-03 0.721E-03 0.614E-03 0.503E-03 0.420E-03
 0.370E-03 0.344E-03 0.325E-03 0.304E-03 0.270E-03 0.229E-03 0.187E-03 0.162E-03
 0.147E-03 0.139E-03 0.129E-03 0.112E-03 0.937E-04 0.792E-04 0.712E-04 0.667E-04
 0.613E-04 0.531E-04 0.440E-04 0.387E-04 0.358E-04 0.332E-04 0.287E-04 0.240E-04
 0.212E-04 0.200E-04 0.178E-04 0.151E-04
END of PSCTR-controll parameters
 local part
   81.2582175088937     
  0.19013236E+02  0.19029327E+02  0.19096154E+02  0.19207326E+02  0.19362531E+02
  0.19561332E+02  0.19803156E+02  0.20087297E+02  0.20412914E+02  0.20779025E+02
  0.21184516E+02  0.21628134E+02  0.22108499E+02  0.22624106E+02  0.23173335E+02
  0.23754455E+02  0.24365638E+02  0.25004960E+02  0.25670417E+02  0.26359925E+02
  0.27071333E+02  0.27802423E+02  0.28550921E+02  0.29314502E+02  0.30090796E+02
  0.30877392E+02  0.31671850E+02  0.32471703E+02  0.33274469E+02  0.34077660E+02
  0.34878784E+02  0.35675360E+02  0.36464922E+02  0.37245031E+02  0.38013278E+02
  0.38767292E+02  0.39504751E+02  0.40223385E+02  0.40920986E+02  0.41595409E+02
  0.42244587E+02  0.42866530E+02  0.43459336E+02  0.44021194E+02  0.44550394E+02
  0.45045326E+02  0.45504491E+02  0.45926503E+02  0.46310090E+02  0.46654102E+02
  0.46957514E+02  0.47219423E+02  0.47439058E+02  0.47615775E+02  0.47749063E+02
  0.47838545E+02  0.47883974E+02  0.47885241E+02  0.47842366E+02  0.47755503E+02
  0.47624939E+02  0.47451086E+02  0.47234487E+02  0.46975804E+02  0.46675824E+02
  0.46335448E+02  0.45955692E+02  0.45537679E+02  0.45082637E+02  0.44591891E+02
  0.44066861E+02  0.43509055E+02  0.42920061E+02  0.42301542E+02  0.41655232E+02
  0.40982923E+02  0.40286463E+02  0.39567747E+02  0.38828709E+02  0.38071317E+02
  0.37297563E+02  0.36509455E+02  0.35709012E+02  0.34898256E+02  0.34079204E+02
  0.33253859E+02  0.32424207E+02  0.31592205E+02  0.30759777E+02  0.29928809E+02
  0.29101137E+02  0.28278545E+02  0.27462760E+02  0.26655442E+02  0.25858184E+02
  0.25072503E+02  0.24299839E+02  0.23541549E+02  0.22798903E+02  0.22073082E+02
  0.21365177E+02  0.20676180E+02  0.20006990E+02  0.19358407E+02  0.18731133E+02
  0.18125770E+02  0.17542820E+02  0.16982689E+02  0.16445683E+02  0.15932011E+02
  0.15441789E+02  0.14975039E+02  0.14531694E+02  0.14111598E+02  0.13714512E+02
  0.13340117E+02  0.12988016E+02  0.12657739E+02  0.12348751E+02  0.12060448E+02
  0.11792174E+02  0.11543213E+02  0.11312806E+02  0.11100146E+02  0.10904392E+02
  0.10724668E+02  0.10560072E+02  0.10409680E+02  0.10272551E+02  0.10147735E+02
  0.10034274E+02  0.99312102E+01  0.98375897E+01  0.97524681E+01  0.96749146E+01
  0.96040164E+01  0.95388833E+01  0.94786510E+01  0.94224853E+01  0.93695848E+01
  0.93191848E+01  0.92705592E+01  0.92230237E+01  0.91759374E+01  0.91287050E+01
  0.90807779E+01  0.90316560E+01  0.89808880E+01  0.89280722E+01  0.88728565E+01
  0.88149387E+01  0.87540656E+01  0.86900324E+01  0.86226819E+01  0.85519034E+01
  0.84776305E+01  0.83998403E+01  0.83185509E+01  0.82338193E+01  0.81457394E+01
  0.80544395E+01  0.79600796E+01  0.78628484E+01  0.77629611E+01  0.76606560E+01
  0.75561918E+01  0.74498446E+01  0.73419048E+01  0.72326741E+01  0.71224628E+01
  0.70115868E+01  0.69003648E+01  0.67891156E+01  0.66781552E+01  0.65677949E+01
  0.64583382E+01  0.63500790E+01  0.62432993E+01  0.61382674E+01  0.60352360E+01
  0.59344406E+01  0.58360982E+01  0.57404063E+01  0.56475415E+01  0.55576589E+01
  0.54708916E+01  0.53873501E+01  0.53071223E+01  0.52302730E+01  0.51568446E+01
  0.50868570E+01  0.50203082E+01  0.49571750E+01  0.48974135E+01  0.48409604E+01
  0.47877338E+01  0.47376346E+01  0.46905476E+01  0.46463426E+01  0.46048766E+01
  0.45659946E+01  0.45295314E+01  0.44953131E+01  0.44631587E+01  0.44328820E+01
  0.44042927E+01  0.43771983E+01  0.43514057E+01  0.43267226E+01  0.43029590E+01
  0.42799287E+01  0.42574506E+01  0.42353500E+01  0.42134595E+01  0.41916207E+01
  0.41696844E+01  0.41475120E+01  0.41249761E+01  0.41019610E+01  0.40783634E+01
  0.40540929E+01  0.40290720E+01  0.40032366E+01  0.39765359E+01  0.39489325E+01
  0.39204019E+01  0.38909327E+01  0.38605259E+01  0.38291946E+01  0.37969636E+01
  0.37638681E+01  0.37299539E+01  0.36952762E+01  0.36598985E+01  0.36238925E+01
  0.35873365E+01  0.35503146E+01  0.35129162E+01  0.34752343E+01  0.34373653E+01
  0.33994072E+01  0.33614593E+01  0.33236209E+01  0.32859902E+01  0.32486641E+01
  0.32117365E+01  0.31752980E+01  0.31394350E+01  0.31042293E+01  0.30697569E+01
  0.30360880E+01  0.30032859E+01  0.29714074E+01  0.29405015E+01  0.29106099E+01
  0.28817662E+01  0.28539961E+01  0.28273173E+01  0.28017395E+01  0.27772644E+01
  0.27538860E+01  0.27315907E+01  0.27103576E+01  0.26901590E+01  0.26709607E+01
  0.26527223E+01  0.26353979E+01  0.26189363E+01  0.26032822E+01  0.25883759E+01
  0.25741547E+01  0.25605529E+01  0.25475031E+01  0.25349361E+01  0.25227822E+01
  0.25109714E+01  0.24994341E+01  0.24881019E+01  0.24769080E+01  0.24657876E+01
  0.24546786E+01  0.24435223E+01  0.24322631E+01  0.24208499E+01  0.24092356E+01
  0.23973778E+01  0.23852390E+01  0.23727868E+01  0.23599943E+01  0.23468397E+01
  0.23333066E+01  0.23193842E+01  0.23050671E+01  0.22903550E+01  0.22752528E+01
  0.22597704E+01  0.22439225E+01  0.22277280E+01  0.22112104E+01  0.21943968E+01
  0.21773178E+01  0.21600073E+01  0.21425017E+01  0.21248400E+01  0.21070628E+01
  0.20892124E+01  0.20713319E+01  0.20534652E+01  0.20356559E+01  0.20179479E+01
  0.20003838E+01  0.19830055E+01  0.19658534E+01  0.19489658E+01  0.19323792E+01
  0.19161272E+01  0.19002411E+01  0.18847488E+01  0.18696753E+01  0.18550420E+01
  0.18408667E+01  0.18271638E+01  0.18139437E+01  0.18012133E+01  0.17889755E+01
  0.17772296E+01  0.17659715E+01  0.17551931E+01  0.17448832E+01  0.17350274E+01
  0.17256080E+01  0.17166045E+01  0.17079940E+01  0.16997510E+01  0.16918479E+01
  0.16842556E+01  0.16769432E+01  0.16698788E+01  0.16630294E+01  0.16563618E+01
  0.16498424E+01  0.16434375E+01  0.16371139E+01  0.16308393E+01  0.16245820E+01
  0.16183116E+01  0.16119994E+01  0.16056180E+01  0.15991424E+01  0.15925493E+01
  0.15858180E+01  0.15789300E+01  0.15718695E+01  0.15646234E+01  0.15571812E+01
  0.15495352E+01  0.15416805E+01  0.15336149E+01  0.15253390E+01  0.15168559E+01
  0.15081715E+01  0.14992940E+01  0.14902339E+01  0.14810041E+01  0.14716194E+01
  0.14620963E+01  0.14524533E+01  0.14427100E+01  0.14328873E+01  0.14230073E+01
  0.14130925E+01  0.14031662E+01  0.13932518E+01  0.13833729E+01  0.13735528E+01
  0.13638145E+01  0.13541803E+01  0.13446717E+01  0.13353092E+01  0.13261121E+01
  0.13170983E+01  0.13082842E+01  0.12996846E+01  0.12913124E+01  0.12831786E+01
  0.12752923E+01  0.12676606E+01  0.12602886E+01  0.12531792E+01  0.12463332E+01
  0.12397496E+01  0.12334251E+01  0.12273547E+01  0.12215312E+01  0.12159461E+01
  0.12105887E+01  0.12054470E+01  0.12005076E+01  0.11957558E+01  0.11911758E+01
  0.11867506E+01  0.11824628E+01  0.11782942E+01  0.11742261E+01  0.11702398E+01
  0.11663164E+01  0.11624370E+01  0.11585832E+01  0.11547368E+01  0.11508805E+01
  0.11469976E+01  0.11430722E+01  0.11390897E+01  0.11350364E+01  0.11309001E+01
  0.11266699E+01  0.11223363E+01  0.11178913E+01  0.11133286E+01  0.11086434E+01
  0.11038325E+01  0.10988942E+01  0.10938287E+01  0.10886375E+01  0.10833237E+01
  0.10778920E+01  0.10723484E+01  0.10667001E+01  0.10609558E+01  0.10551253E+01
  0.10492191E+01  0.10432490E+01  0.10372273E+01  0.10311670E+01  0.10250816E+01
  0.10189851E+01  0.10128914E+01  0.10068147E+01  0.10007690E+01  0.99476839E+00
  0.98882625E+00  0.98295571E+00  0.97716927E+00  0.97147874E+00  0.96589514E+00
  0.96042854E+00  0.95508806E+00  0.94988174E+00  0.94481646E+00  0.93989795E+00
  0.93513070E+00  0.93051795E+00  0.92606169E+00  0.92176264E+00  0.91762023E+00
  0.91363269E+00  0.90979704E+00  0.90610909E+00  0.90256359E+00  0.89915419E+00
  0.89587360E+00  0.89271361E+00  0.88966521E+00  0.88671868E+00  0.88386371E+00
  0.88108948E+00  0.87838477E+00  0.87573810E+00  0.87313783E+00  0.87057223E+00
  0.86802967E+00  0.86549864E+00  0.86296792E+00  0.86042666E+00  0.85786448E+00
  0.85527155E+00  0.85263870E+00  0.84995750E+00  0.84722031E+00  0.84442035E+00
  0.84155176E+00  0.83860964E+00  0.83559006E+00  0.83249012E+00  0.82930792E+00
  0.82604259E+00  0.82269427E+00  0.81926412E+00  0.81575425E+00  0.81216774E+00
  0.80850856E+00  0.80478153E+00  0.80099226E+00  0.79714709E+00  0.79325301E+00
  0.78931758E+00  0.78534884E+00  0.78135526E+00  0.77734559E+00  0.77332881E+00
  0.76931406E+00  0.76531049E+00  0.76132722E+00  0.75737325E+00  0.75345734E+00
  0.74958796E+00  0.74577319E+00  0.74202065E+00  0.73833744E+00  0.73473003E+00
  0.73120429E+00  0.72776534E+00  0.72441758E+00  0.72116463E+00  0.71800929E+00
  0.71495357E+00  0.71199863E+00  0.70914481E+00  0.70639160E+00  0.70373770E+00
  0.70118101E+00  0.69871867E+00  0.69634706E+00  0.69406190E+00  0.69185826E+00
  0.68973062E+00  0.68767294E+00  0.68567872E+00  0.68374107E+00  0.68185278E+00
  0.68000640E+00  0.67819429E+00  0.67640872E+00  0.67464195E+00  0.67288625E+00
  0.67113406E+00  0.66937795E+00  0.66761081E+00  0.66582581E+00  0.66401653E+00
  0.66217700E+00  0.66030173E+00  0.65838581E+00  0.65642488E+00  0.65441523E+00
  0.65235378E+00  0.65023811E+00  0.64806651E+00  0.64583793E+00  0.64355203E+00
  0.64120913E+00  0.63881024E+00  0.63635703E+00  0.63385180E+00  0.63129744E+00
  0.62869743E+00  0.62605575E+00  0.62337690E+00  0.62066577E+00  0.61792763E+00
  0.61516809E+00  0.61239300E+00  0.60960840E+00  0.60682048E+00  0.60403550E+00
  0.60125973E+00  0.59849939E+00  0.59576061E+00  0.59304933E+00  0.59037128E+00
  0.58773190E+00  0.58513631E+00  0.58258925E+00  0.58009504E+00  0.57765751E+00
  0.57528003E+00  0.57296544E+00  0.57071603E+00  0.56853354E+00  0.56641912E+00
  0.56437339E+00  0.56239635E+00  0.56048745E+00  0.55864558E+00  0.55686908E+00
  0.55515578E+00  0.55350298E+00  0.55190753E+00  0.55036586E+00  0.54887399E+00
  0.54742758E+00  0.54602202E+00  0.54465241E+00  0.54331367E+00  0.54200056E+00
  0.54070773E+00  0.53942978E+00  0.53816133E+00  0.53689702E+00  0.53563162E+00
  0.53436003E+00  0.53307738E+00  0.53177900E+00  0.53046055E+00  0.52911801E+00
  0.52774770E+00  0.52634636E+00  0.52491116E+00  0.52343970E+00  0.52193004E+00
  0.52038073E+00  0.51879079E+00  0.51715972E+00  0.51548753E+00  0.51377469E+00
  0.51202215E+00  0.51023132E+00  0.50840404E+00  0.50654259E+00  0.50464961E+00
  0.50272813E+00  0.50078149E+00  0.49881332E+00  0.49682751E+00  0.49482813E+00
  0.49281943E+00  0.49080579E+00  0.48879165E+00  0.48678149E+00  0.48477978E+00
  0.48279095E+00  0.48081930E+00  0.47886903E+00  0.47694413E+00  0.47504839E+00
  0.47318535E+00  0.47135826E+00  0.46957003E+00  0.46782325E+00  0.46612015E+00
  0.46446256E+00  0.46285192E+00  0.46128927E+00  0.45977523E+00  0.45831002E+00
  0.45689342E+00  0.45552483E+00  0.45420324E+00  0.45292725E+00  0.45169509E+00
  0.45050465E+00  0.44935347E+00  0.44823882E+00  0.44715768E+00  0.44610679E+00
  0.44508271E+00  0.44408181E+00  0.44310035E+00  0.44213449E+00  0.44118033E+00
  0.44023396E+00  0.43929148E+00  0.43834907E+00  0.43740297E+00  0.43644957E+00
  0.43548542E+00  0.43450725E+00  0.43351205E+00  0.43249704E+00  0.43145972E+00
  0.43039789E+00  0.42930969E+00  0.42819356E+00  0.42704832E+00  0.42587311E+00
  0.42466744E+00  0.42343117E+00  0.42216452E+00  0.42086805E+00  0.41954269E+00
  0.41818965E+00  0.41681051E+00  0.41540710E+00  0.41398155E+00  0.41253625E+00
  0.41107378E+00  0.40959695E+00  0.40810872E+00  0.40661219E+00  0.40511055E+00
  0.40360707E+00  0.40210505E+00  0.40060781E+00  0.39911864E+00  0.39764075E+00
  0.39617730E+00  0.39473129E+00  0.39330560E+00  0.39190292E+00  0.39052574E+00
  0.38917632E+00  0.38785667E+00  0.38656854E+00  0.38531341E+00  0.38409244E+00
  0.38290652E+00  0.38175622E+00  0.38064181E+00  0.37956325E+00  0.37852018E+00
  0.37751197E+00  0.37653766E+00  0.37559605E+00  0.37468563E+00  0.37380467E+00
  0.37295120E+00  0.37212303E+00  0.37131778E+00  0.37053294E+00  0.36976582E+00
  0.36901367E+00  0.36827362E+00  0.36754278E+00  0.36681822E+00  0.36609701E+00
  0.36537628E+00  0.36465318E+00  0.36392497E+00  0.36318904E+00  0.36244288E+00
  0.36168416E+00  0.36091075E+00  0.36012070E+00  0.35931230E+00  0.35848405E+00
  0.35763474E+00  0.35676338E+00  0.35586925E+00  0.35495192E+00  0.35401120E+00
  0.35304718E+00  0.35206023E+00  0.35105094E+00  0.35002021E+00  0.34896913E+00
  0.34789904E+00  0.34681151E+00  0.34570829E+00  0.34459129E+00  0.34346262E+00
  0.34232448E+00  0.34117921E+00  0.34002922E+00  0.33887698E+00  0.33772499E+00
  0.33657579E+00  0.33543189E+00  0.33429574E+00  0.33316977E+00  0.33205631E+00
  0.33095757E+00  0.32987564E+00  0.32881248E+00  0.32776985E+00  0.32674935E+00
  0.32575237E+00  0.32478009E+00  0.32383347E+00  0.32291324E+00  0.32201990E+00
  0.32115372E+00  0.32031473E+00  0.31950272E+00  0.31871725E+00  0.31795766E+00
  0.31722308E+00  0.31651241E+00  0.31582436E+00  0.31515746E+00  0.31451008E+00
  0.31388043E+00  0.31326660E+00  0.31266655E+00  0.31207818E+00  0.31149931E+00
  0.31092772E+00  0.31036114E+00  0.30979735E+00  0.30923410E+00  0.30866920E+00
  0.30810053E+00  0.30752603E+00  0.30694377E+00  0.30635191E+00  0.30574878E+00
  0.30513283E+00  0.30450270E+00  0.30385721E+00  0.30319536E+00  0.30251636E+00
  0.30181961E+00  0.30110473E+00  0.30037153E+00  0.29962005E+00  0.29885052E+00
  0.29806338E+00  0.29725927E+00  0.29643901E+00  0.29560361E+00  0.29475425E+00
  0.29389226E+00  0.29301911E+00  0.29213642E+00  0.29124589E+00  0.29034931E+00
  0.28944856E+00  0.28854556E+00  0.28764227E+00  0.28674065E+00  0.28584266E+00
  0.28495024E+00  0.28406529E+00  0.28318963E+00  0.28232503E+00  0.28147313E+00
  0.28063549E+00  0.27981352E+00  0.27900849E+00  0.27822153E+00  0.27745359E+00
  0.27670545E+00  0.27597773E+00  0.27527086E+00  0.27458506E+00  0.27392041E+00
  0.27327677E+00  0.27265383E+00  0.27205111E+00  0.27146794E+00  0.27090351E+00
  0.27035681E+00  0.26982673E+00  0.26931200E+00  0.26881123E+00  0.26832294E+00
  0.26784555E+00  0.26737739E+00  0.26691677E+00  0.26646193E+00  0.26601111E+00
  0.26556254E+00  0.26511444E+00  0.26466509E+00  0.26421280E+00  0.26375595E+00
  0.26329298E+00  0.26282244E+00  0.26234298E+00  0.26185337E+00  0.26135250E+00
  0.26083942E+00  0.26031331E+00  0.25977354E+00  0.25921960E+00  0.25865116E+00
  0.25806806E+00  0.25747030E+00  0.25685805E+00  0.25623163E+00  0.25559153E+00
  0.25493838E+00  0.25427297E+00  0.25359622E+00  0.25290916E+00  0.25221297E+00
  0.25150890E+00  0.25079830E+00  0.25008260E+00  0.24936329E+00  0.24864189E+00
  0.24791996E+00  0.24719907E+00  0.24648079E+00  0.24576666E+00  0.24505821E+00
  0.24435690E+00  0.24366415E+00  0.24298130E+00  0.24230958E+00  0.24165015E+00
  0.24100404E+00  0.24037217E+00  0.23975532E+00  0.23915414E+00  0.23856913E+00
  0.23800066E+00  0.23744893E+00  0.23691402E+00  0.23639583E+00  0.23589413E+00
  0.23540856E+00  0.23493860E+00  0.23448360E+00  0.23404279E+00  0.23361527E+00
  0.23320005E+00  0.23279601E+00  0.23240198E+00  0.23201669E+00  0.23163881E+00
  0.23126697E+00  0.23089978E+00  0.23053581E+00  0.23017362E+00  0.22981181E+00
  0.22944897E+00  0.22908373E+00  0.22871478E+00  0.22834088E+00  0.22796082E+00
  0.22757352E+00  0.22717796E+00  0.22677326E+00  0.22635863E+00  0.22593339E+00
  0.22549701E+00  0.22504907E+00  0.22458931E+00  0.22411757E+00  0.22363385E+00
  0.22313827E+00  0.22263108E+00  0.22211267E+00  0.22158353E+00  0.22104430E+00
  0.22049571E+00  0.21993860E+00  0.21937390E+00  0.21880263E+00  0.21822589E+00
  0.21764483E+00  0.21706066E+00  0.21647461E+00  0.21588796E+00  0.21530197E+00
  0.21471794E+00  0.21413711E+00  0.21356074E+00  0.21299001E+00  0.21242610E+00
  0.21187008E+00  0.21132300E+00  0.21078578E+00  0.21025928E+00  0.20974426E+00
  0.20924138E+00  0.20875116E+00  0.20827403E+00  0.20781030E+00  0.20736014E+00
  0.20692363E+00  0.20650070E+00  0.20609117E+00  0.20569475E+00  0.20531102E+00
  0.20493947E+00  0.20457946E+00  0.20423029E+00  0.20389112E+00  0.20356107E+00
  0.20323917E+00  0.20292438E+00  0.20261563E+00  0.20231179E+00  0.20201171E+00
  0.20171422E+00  0.20141816E+00  0.20112234E+00  0.20082564E+00  0.20052692E+00
  0.20022509E+00  0.19991913E+00  0.19960806E+00  0.19929097E+00  0.19896702E+00
  0.19863548E+00  0.19829568E+00  0.19794708E+00  0.19758923E+00  0.19722176E+00
  0.19684447E+00  0.19645721E+00  0.19605997E+00  0.19565286E+00  0.19523607E+00
  0.19480991E+00  0.19437481E+00  0.19393126E+00  0.19347987E+00  0.19302133E+00
 gradient corrections used for XC
           5
 core charge-density (partial)
  0.24953748E+01  0.24941107E+01  0.24903221E+01  0.24840198E+01  0.24752223E+01
  0.24639548E+01  0.24502498E+01  0.24341467E+01  0.24156916E+01  0.23949369E+01
  0.23719415E+01  0.23467700E+01  0.23194930E+01  0.22901860E+01  0.22589298E+01
  0.22258097E+01  0.21909153E+01  0.21543399E+01  0.21161803E+01  0.20765364E+01
  0.20355104E+01  0.19932070E+01  0.19497324E+01  0.19051940E+01  0.18597003E+01
  0.18133600E+01  0.17662821E+01  0.17185749E+01  0.16703461E+01  0.16217023E+01
  0.15727484E+01  0.15235875E+01  0.14743208E+01  0.14250465E+01  0.13758604E+01
  0.13268552E+01  0.12781201E+01  0.12297410E+01  0.11818001E+01  0.11343755E+01
  0.10875415E+01  0.10413681E+01  0.99592117E+00  0.95126201E+00  0.90744767E+00
  0.86453072E+00  0.82255923E+00  0.78157681E+00  0.74162263E+00  0.70273143E+00
  0.66493361E+00  0.62825526E+00  0.59271830E+00  0.55834053E+00  0.52513577E+00
  0.49311397E+00  0.46228138E+00  0.43264064E+00  0.40419098E+00  0.37692836E+00
  0.35084563E+00  0.32593272E+00  0.30217681E+00  0.27956247E+00  0.25807191E+00
  0.23768510E+00  0.21837998E+00  0.20013263E+00  0.18291746E+00  0.16670736E+00
  0.15147391E+00  0.13718750E+00  0.12381756E+00  0.11133266E+00  0.99700701E-01
  0.88889048E-01  0.78864684E-01  0.69594340E-01  0.61044633E-01  0.53182182E-01
  0.45973731E-01  0.39386256E-01  0.33387072E-01  0.27943922E-01  0.23025072E-01
  0.18599386E-01  0.14636406E-01  0.11106414E-01  0.79804953E-02  0.52305882E-02
  0.28295332E-02  0.75111134E-03 -0.10299217E-02 -0.25378085E-02 -0.37957678E-02
 -0.48259789E-02 -0.56495704E-02 -0.62866148E-02 -0.67561274E-02 -0.70760700E-02
 -0.72633581E-02 -0.73338731E-02 -0.73024769E-02 -0.71830309E-02 -0.69884171E-02
 -0.67305624E-02 -0.64204657E-02 -0.60682261E-02 -0.56830741E-02 -0.52734040E-02
 -0.48468075E-02 -0.44101085E-02 -0.39693993E-02 -0.35300769E-02 -0.30968799E-02
 -0.26739258E-02 -0.22647482E-02 -0.18723342E-02 -0.14991610E-02 -0.11472325E-02
 -0.81811505E-03 -0.51297282E-03 -0.23260184E-03  0.22536505E-04  0.25228322E-03
  0.45675051E-03  0.63629182E-03  0.79147314E-03  0.92304564E-03  0.10319197E-02
  0.11191402E-02  0.11858635E-02  0.12333357E-02  0.12628720E-02  0.12758387E-02
  0.12736346E-02  0.12576763E-02  0.12293826E-02  0.11901619E-02  0.11414001E-02
  0.10844501E-02  0.10206224E-02  0.95117739E-03  0.87731777E-03  0.80018332E-03
  0.72084582E-03  0.64030540E-03  0.55948768E-03  0.47924179E-03  0.40033925E-03
  0.32347360E-03  0.24926066E-03  0.17823952E-03  0.11087404E-03  0.47554834E-04
 -0.11398205E-04 -0.65733052E-04 -0.11526233E-03 -0.15985979E-03 -0.19945659E-03
 -0.23403733E-03 -0.26363599E-03 -0.28833174E-03 -0.30824470E-03 -0.32353169E-03
 -0.33438195E-03 -0.34101299E-03 -0.34366644E-03 -0.34260403E-03 -0.33810372E-03
 -0.33045594E-03 -0.31996005E-03 -0.30692095E-03 -0.29164590E-03 -0.27444154E-03
 -0.25561118E-03 -0.23545222E-03 -0.21425391E-03 -0.19229529E-03 -0.16984333E-03
 -0.14715137E-03 -0.12445775E-03 -0.10198469E-03 -0.79937350E-04 -0.58503120E-04
 -0.37851137E-04 -0.18131960E-04  0.52255807E-06  0.17999225E-04  0.34203309E-04
  0.49058190E-04  0.62504875E-04  0.74501388E-04  0.85022061E-04  0.94056716E-04
  0.10160977E-03  0.10769929E-03  0.11235593E-03  0.11562191E-03  0.11754986E-03
  0.11820175E-03  0.11764774E-03  0.11596499E-03  0.11323661E-03  0.10955050E-03
  0.10499828E-03  0.99674208E-04  0.93674216E-04  0.87094907E-04  0.80032647E-04
  0.72582714E-04  0.64838487E-04  0.56890722E-04  0.48826874E-04  0.40730498E-04
  0.32680717E-04  0.24751758E-04  0.17012556E-04  0.95264319E-05  0.23508329E-05
 -0.44628580E-05 -0.10869450E-04 -0.16830009E-04 -0.22311866E-04 -0.27288571E-04
 -0.31739788E-04 -0.35651150E-04 -0.39014065E-04 -0.41825484E-04 -0.44087629E-04
 -0.45807695E-04 -0.46997517E-04 -0.47673224E-04 -0.47854859E-04 -0.47566001E-04
 -0.46833362E-04 -0.45686385E-04 -0.44156839E-04 -0.42278407E-04 -0.40086291E-04
 -0.37616810E-04 -0.34907018E-04 -0.31994335E-04 -0.28916184E-04 -0.25709661E-04
 -0.22411210E-04 -0.19056329E-04 -0.15679296E-04 -0.12312922E-04 -0.89883216E-05
 -0.57347205E-05 -0.25792803E-05  0.45304533E-06  0.33396297E-05  0.60602653E-05
  0.85972303E-05  0.10935330E-04  0.13061915E-04  0.14966872E-04  0.16642600E-04
  0.18083957E-04  0.19288196E-04  0.20254872E-04  0.20985747E-04  0.21484666E-04
  0.21757430E-04  0.21811653E-04  0.21656611E-04  0.21303084E-04  0.20763188E-04
  0.20050209E-04  0.19178427E-04  0.18162947E-04  0.17019523E-04  0.15764388E-04
  0.14414087E-04  0.12985316E-04  0.11494759E-04  0.99589458E-05  0.83941045E-05
  0.68160306E-05  0.52399625E-05  0.36804691E-05  0.21513467E-05  0.66552776E-06
 -0.76499827E-06 -0.21292534E-05 -0.34173269E-05 -0.46204198E-05 -0.57308771E-05
 -0.67422091E-05 -0.76491014E-05 -0.84474135E-05 -0.91341676E-05 -0.97075276E-05
 -0.10166769E-04 -0.10512239E-04 -0.10745310E-04 -0.10868326E-04 -0.10884543E-04
 -0.10798059E-04 -0.10613748E-04 -0.10337182E-04 -0.99745546E-05 -0.95325986E-05
 -0.90185057E-05 -0.84398431E-05 -0.78044703E-05 -0.71204572E-05 -0.63960031E-05
 -0.56393580E-05 -0.48587463E-05 -0.40622938E-05 -0.32579585E-05 -0.24534652E-05
 -0.16562454E-05 -0.87338144E-06 -0.11155598E-06  0.62299266E-06  0.13245099E-05
  0.19877583E-05  0.26080452E-05  0.31812445E-05  0.37038127E-05  0.41727987E-05
  0.45858485E-05  0.49412041E-05  0.52376977E-05  0.54747398E-05  0.56523038E-05
  0.57709052E-05  0.58315775E-05  0.58358440E-05  0.57856862E-05  0.56835095E-05
  0.55321060E-05  0.53346162E-05  0.50944874E-05  0.48154325E-05  0.45013867E-05
  0.41564641E-05  0.37849151E-05  0.33910825E-05  0.29793598E-05  0.25541497E-05
  0.21198241E-05  0.16806863E-05  0.12409341E-05  0.80462620E-06  0.37565033E-06
 -0.42305783E-07 -0.44578067E-06 -0.83156248E-06 -0.11967093E-05 -0.15385664E-05
 -0.18547805E-05 -0.21433102E-05 -0.24024345E-05 -0.26307570E-05 -0.28272075E-05
 -0.29910411E-05 -0.31218335E-05 -0.32194747E-05 -0.32841589E-05 -0.33163734E-05
 -0.33168839E-05 -0.32867188E-05 -0.32271512E-05 -0.31396796E-05 -0.30260069E-05
 -0.28880185E-05 -0.27277592E-05 -0.25474103E-05 -0.23492649E-05 -0.21357041E-05
 -0.19091724E-05 -0.16721542E-05 -0.14271499E-05 -0.11766530E-05 -0.92312767E-06
 -0.66898804E-06 -0.41657766E-06 -0.16815085E-06  0.74144782E-07  0.30828427E-06
  0.53237966E-06  0.74469271E-06  0.94364581E-06  0.11278312E-05  0.12960184E-05
  0.14471596E-05  0.15803938E-05  0.16950484E-05  0.17906398E-05  0.18668717E-05
  0.19236323E-05  0.19609896E-05  0.19791852E-05  0.19786270E-05  0.19598807E-05
  0.19236596E-05  0.18708140E-05  0.18023194E-05  0.17192640E-05  0.16228357E-05
  0.15143081E-05  0.13950269E-05  0.12663956E-05  0.11298610E-05  0.98689902E-06
  0.83900083E-06  0.68765864E-06  0.53435246E-06  0.38053714E-06  0.22763003E-06
  0.76999335E-07 -0.70046782E-07 -0.21227017E-06 -0.34851184E-06 -0.47770006E-06
 -0.59885753E-06 -0.71110741E-06 -0.81367838E-06 -0.90590854E-06 -0.98724825E-06
 -0.10572619E-05 -0.11156287E-05 -0.11621420E-05 -0.11967083E-05 -0.12193450E-05
 -0.12301765E-05 -0.12294308E-05 -0.12174344E-05 -0.11946062E-05 -0.11614517E-05
 -0.11185559E-05 -0.10665758E-05 -0.10062325E-05 -0.93830306E-06 -0.86361188E-06
 -0.78302212E-06 -0.69742680E-06 -0.60774002E-06 -0.51488815E-06 -0.41980118E-06
 -0.32340429E-06 -0.22660965E-06 -0.13030859E-06 -0.35364132E-07  0.57395959E-07
  0.14718571E-06  0.23326687E-06  0.31495427E-06  0.39162056E-06  0.46270034E-06
  0.52769356E-06  0.58616835E-06  0.63776303E-06  0.68218757E-06  0.71922432E-06
  0.74872804E-06  0.77062535E-06  0.78491349E-06  0.79165856E-06  0.79099308E-06
  0.78311314E-06  0.76827497E-06  0.74679110E-06  0.71902612E-06  0.68539204E-06
  0.64634341E-06  0.60237214E-06  0.55400214E-06  0.50178380E-06  0.44628835E-06
  0.38810226E-06  0.32782151E-06  0.26604609E-06  0.20337442E-06  0.14039811E-06
  0.77696708E-07  0.15832903E-07 -0.44652180E-07 -0.10324327E-06 -0.15945496E-06
 -0.21283530E-06 -0.26296903E-06 -0.30948045E-06 -0.35203576E-06 -0.39034506E-06
 -0.42416389E-06 -0.45329428E-06 -0.47758541E-06 -0.49693384E-06 -0.51128325E-06
 -0.52062382E-06 -0.52499119E-06 -0.52446505E-06 -0.51916735E-06 -0.50926021E-06
 -0.49494346E-06 -0.47645198E-06 -0.45405274E-06 -0.42804163E-06 -0.39874012E-06
 -0.36649178E-06 -0.33165864E-06 -0.29461751E-06 -0.25575627E-06 -0.21547011E-06
 -0.17415780E-06 -0.13221802E-06 -0.90045830E-07 -0.48029143E-07 -0.65454494E-08
  0.34041347E-07  0.73383875E-07  0.11115403E-06  0.14704550E-06  0.18077595E-06
  0.21208907E-06  0.24075627E-06  0.26657804E-06  0.28938513E-06  0.30903938E-06
  0.32543419E-06  0.33849484E-06  0.34817835E-06  0.35447323E-06  0.35739879E-06
  0.35700434E-06  0.35336801E-06  0.34659543E-06  0.33681817E-06  0.32419194E-06
  0.30889470E-06  0.29112451E-06  0.27109735E-06  0.24904474E-06  0.22521135E-06
  0.19985249E-06  0.17323158E-06  0.14561763E-06  0.11728265E-06  0.88499209E-07
  0.59537907E-07  0.30665036E-07  0.21402608E-08 -0.25785560E-07 -0.52872440E-07
 -0.78893179E-07 -0.10363513E-06 -0.12690178E-06 -0.14851419E-06 -0.16831220E-06
 -0.18615545E-06 -0.20192427E-06 -0.21552024E-06 -0.22686665E-06 -0.23590874E-06
 -0.24261368E-06 -0.24697045E-06 -0.24898941E-06 -0.24870181E-06 -0.24615901E-06
 -0.24143167E-06 -0.23460860E-06 -0.22579569E-06 -0.21511451E-06 -0.20270094E-06
 -0.18870363E-06 -0.17328238E-06 -0.15660652E-06 -0.13885314E-06 -0.12020536E-06
 -0.10085055E-06 -0.80978585E-07 -0.60780041E-07 -0.40444512E-07 -0.20158908E-07
 -0.10583104E-09  0.19537970E-07  0.38603072E-07  0.56928742E-07  0.74364209E-07
  0.90769812E-07  0.10601802E-06  0.11999436E-06  0.13259811E-06  0.14374301E-06
  0.15335769E-06  0.16138602E-06  0.16778730E-06  0.17253633E-06  0.17562332E-06
  0.17705363E-06  0.17684749E-06  0.17503944E-06  0.17167782E-06  0.16682395E-06
  0.16055144E-06  0.15294518E-06  0.14410042E-06  0.13412169E-06  0.12312165E-06
  0.11121996E-06  0.98542053E-07  0.85217863E-07  0.71380614E-07  0.57165532E-07
  0.42708599E-07  0.28145318E-07  0.13609498E-07 -0.76790579E-09 -0.14859918E-07
 -0.28544607E-07 -0.41706076E-07 -0.54235394E-07 -0.66031434E-07 -0.77001635E-07
 -0.87062663E-07 -0.96140985E-07 -0.10417334E-06 -0.11110711E-06 -0.11690058E-06
 -0.12152312E-06 -0.12495524E-06 -0.12718854E-06 -0.12822561E-06 -0.12807974E-06
 -0.12677465E-06 -0.12434406E-06 -0.12083119E-06 -0.11628819E-06 -0.11077553E-06
 -0.10436127E-06 -0.97120307E-07 -0.89133605E-07 -0.80487316E-07 -0.71271929E-07
 -0.61581368E-07 -0.51512093E-07 -0.41162177E-07 -0.30630399E-07 -0.20015343E-07
 -0.94145171E-08  0.10765048E-08  0.11364904E-07  0.21361402E-07  0.30980992E-07
  0.40143633E-07  0.48774867E-07  0.56806395E-07  0.64176568E-07  0.70830828E-07
  0.76722063E-07  0.81810897E-07  0.86065899E-07  0.89463725E-07  0.91989180E-07
  0.93635203E-07  0.94402787E-07  0.94300824E-07  0.93345880E-07  0.91561909E-07
  0.88979905E-07  0.85637498E-07  0.81578494E-07  0.76852374E-07  0.71513744E-07
  0.65621757E-07  0.59239496E-07  0.52433341E-07  0.45272312E-07  0.37827403E-07
  0.30170908E-07  0.22375749E-07  0.14514809E-07  0.66602804E-08 -0.11169754E-08
 -0.87480379E-08 -0.16166514E-07 -0.23309090E-07 -0.30116046E-07 -0.36531730E-07
 -0.42504988E-07 -0.47989542E-07 -0.52944325E-07 -0.57333753E-07 -0.61127957E-07
 -0.64302947E-07 -0.66840728E-07 -0.68729356E-07 -0.69962942E-07 -0.70541601E-07
 -0.70471347E-07 -0.69763937E-07 -0.68436665E-07 -0.66512117E-07 -0.64017873E-07
 -0.60986172E-07 -0.57453550E-07 -0.53460431E-07 -0.49050700E-07 -0.44271252E-07
 -0.39171519E-07 -0.33802977E-07 -0.28218658E-07 -0.22472641E-07 -0.16619549E-07
 -0.10714052E-07 -0.48103709E-08  0.10381986E-08  0.67797514E-08  0.12364215E-07
  0.17743771E-07  0.22873243E-07  0.27710462E-07  0.32216594E-07  0.36356433E-07
  0.40098659E-07  0.43416050E-07  0.46285665E-07  0.48688976E-07  0.50611960E-07
  0.52045153E-07  0.52983661E-07  0.53427125E-07  0.53379652E-07  0.52849704E-07
  0.51849954E-07  0.50397095E-07  0.48511632E-07  0.46217635E-07  0.43542458E-07
  0.40516446E-07  0.37172612E-07  0.33546297E-07  0.29674814E-07  0.25597079E-07
  0.21353241E-07  0.16984295E-07  0.12531704E-07  0.80370164E-08  0.35414935E-08
 -0.91425853E-09 -0.52906423E-08 -0.95494089E-08 -0.13653980E-07 -0.17569750E-07
 -0.21264367E-07 -0.24707983E-07 -0.27873488E-07 -0.30736708E-07 -0.33276572E-07
 -0.35475259E-07 -0.37318301E-07 -0.38794662E-07 -0.39896784E-07 -0.40620600E-07
 -0.40965511E-07 -0.40934345E-07 -0.40533271E-07 -0.39771693E-07 -0.38662117E-07
 -0.37219987E-07 -0.35463501E-07 -0.33413407E-07 -0.31092773E-07 -0.28526748E-07
 -0.25742297E-07 -0.22767939E-07 -0.19633458E-07 -0.16369624E-07 -0.13007893E-07
 -0.95801200E-08 -0.61182644E-08 -0.26541000E-08  0.78106610E-09  0.41566685E-08
  0.74431466E-08  0.10612195E-07  0.13636999E-07  0.16492451E-07  0.19155353E-07
  0.21604595E-07  0.23821310E-07  0.25789016E-07  0.27493719E-07  0.28924010E-07
  0.30071123E-07  0.30928973E-07  0.31494176E-07  0.31766033E-07  0.31746497E-07
  0.31440117E-07  0.30853959E-07  0.29997501E-07  0.28882513E-07  0.27522921E-07
  0.25934643E-07  0.24135420E-07  0.22144630E-07  0.19983087E-07  0.17672833E-07
  0.15236924E-07  0.12699205E-07  0.10084084E-07  0.74163059E-08  0.47207253E-08
  0.20220793E-08 -0.65523132E-09 -0.32873574E-08 -0.58512070E-08 -0.83246424E-08
 -0.10686665E-07 -0.12917586E-07 -0.14999187E-07 -0.16914860E-07 -0.18649734E-07
 -0.20190783E-07 -0.21526916E-07 -0.22649050E-07 -0.23550159E-07 -0.24225313E-07
 -0.24671686E-07 -0.24888554E-07 -0.24877271E-07 -0.24641226E-07 -0.24185785E-07
 -0.23518210E-07 -0.22647572E-07 -0.21584639E-07 -0.20341756E-07 -0.18932714E-07
 -0.17372602E-07 -0.15677653E-07 -0.13865084E-07 -0.11952926E-07 -0.99598500E-08
 -0.79049891E-08 -0.58077621E-08 -0.36876935E-08 -0.15642369E-08  0.54339916E-09
  0.26164202E-08  0.46366090E-08  0.65864810E-08  0.84494317E-08  0.10209873E-07
  0.11853359E-07  0.13366699E-07  0.14738063E-07  0.15957061E-07  0.17014824E-07
  0.17904057E-07  0.18619086E-07  0.19155884E-07  0.19512087E-07  0.19686988E-07
  0.19681526E-07  0.19498248E-07  0.19141269E-07  0.18616211E-07  0.17930133E-07
  0.17091445E-07  0.16109818E-07  0.14996073E-07  0.13762077E-07  0.12420613E-07
  0.10985258E-07  0.94702478E-08  0.78903412E-08  0.62606789E-08  0.45966429E-08
  0.29137150E-08  0.12273356E-08 -0.44723391E-09 -0.20950463E-08 -0.37015985E-08
 -0.52529559E-08 -0.67358700E-08 -0.81378882E-08 -0.94474551E-08 -0.10654004E-07
 -0.11748038E-07 -0.12721204E-07 -0.13566347E-07 -0.14277562E-07 -0.14850232E-07
 -0.15281047E-07 -0.15568020E-07 -0.15710485E-07 -0.15709089E-07 -0.15565764E-07
 -0.15283695E-07 -0.14867274E-07 -0.14322044E-07 -0.13654635E-07 -0.12872690E-07
 -0.11984781E-07 -0.11000320E-07 -0.99294666E-08 -0.87830208E-08 -0.75723228E-08
 -0.63091411E-08 -0.50055618E-08 -0.36738756E-08 -0.23264646E-08 -0.97568981E-09
  0.36621974E-09  0.16872753E-08  0.29758328E-08  0.42206936E-08  0.54111985E-08
  0.65373175E-08  0.75897310E-08  0.85599046E-08  0.94401559E-08  0.10223712E-07
  0.10904759E-07  0.11478481E-07  0.11941093E-07  0.12289856E-07  0.12523097E-07
  0.12640200E-07  0.12641606E-07  0.12528790E-07  0.12304240E-07  0.11971416E-07
  0.11534708E-07  0.10999387E-07  0.10371544E-07  0.96580250E-08  0.88663607E-08
  0.80046887E-08  0.70816736E-08  0.61064218E-08  0.50883944E-08  0.40373172E-08
  0.29630902E-08  0.18756961E-08  0.78510960E-09 -0.29879217E-09 -0.13663173E-08
 -0.24080439E-08 -0.34149014E-08 -0.43782476E-08 -0.52899413E-08 -0.61424088E-08
 -0.69287050E-08 -0.76425683E-08 -0.82784676E-08 -0.88316436E-08 -0.92981416E-08
 -0.96748368E-08 -0.99594526E-08 -0.10150570E-07 -0.10247629E-07 -0.10250925E-07
 -0.10161593E-07 -0.99815892E-08 -0.97136614E-08 -0.93613153E-08 -0.89287736E-08
 -0.84209288E-08 -0.78432913E-08 -0.72019319E-08 -0.65034204E-08 -0.57547603E-08
 -0.49633206E-08 -0.41367648E-08 -0.32829785E-08 -0.24099960E-08 -0.15259255E-08
 -0.63887618E-09  0.24311556E-09  0.11121569E-08  0.19605683E-08  0.27809493E-08
  0.35662426E-08  0.43097925E-08  0.50054003E-08  0.56473745E-08  0.62305756E-08
  0.67504558E-08  0.72030927E-08  0.75852170E-08  0.78942339E-08  0.81282386E-08
  0.82860245E-08  0.83670864E-08  0.83716158E-08  0.83004915E-08  0.81552629E-08
  0.79381282E-08  0.76519071E-08  0.73000074E-08  0.68863878E-08  0.64155155E-08
 kinetic energy density (partial)
  0.26517834E+03  0.26504774E+03  0.26465631E+03  0.26400513E+03  0.26309603E+03
  0.26193152E+03  0.26051484E+03  0.25884991E+03  0.25694130E+03  0.25479425E+03
  0.25241463E+03  0.24980889E+03  0.24698405E+03  0.24394769E+03  0.24070788E+03
  0.23727316E+03  0.23365250E+03  0.22985529E+03  0.22589124E+03  0.22177041E+03
  0.21750311E+03  0.21309989E+03  0.20857150E+03  0.20392882E+03  0.19918286E+03
  0.19434468E+03  0.18942536E+03  0.18443598E+03  0.17938755E+03  0.17429101E+03
  0.16915714E+03  0.16399658E+03  0.15881977E+03  0.15363692E+03  0.14845796E+03
  0.14329257E+03  0.13815009E+03  0.13303954E+03  0.12796957E+03  0.12294847E+03
  0.11798413E+03  0.11308402E+03  0.10825520E+03  0.10350431E+03  0.98837527E+02
  0.94260598E+02  0.89778818E+02  0.85397029E+02  0.81119623E+02  0.76950540E+02
  0.72893276E+02  0.68950886E+02  0.65125990E+02  0.61420782E+02  0.57837042E+02
  0.54376143E+02  0.51039066E+02  0.47826414E+02  0.44738424E+02  0.41774981E+02
  0.38935639E+02  0.36219633E+02  0.33625897E+02  0.31153082E+02  0.28799574E+02
  0.26563511E+02  0.24442802E+02  0.22435145E+02  0.20538046E+02  0.18748836E+02
  0.17064687E+02  0.15482636E+02  0.13999594E+02  0.12612369E+02  0.11317681E+02
  0.10112176E+02  0.89924451E+01  0.79550358E+01  0.69964683E+01  0.61132484E+01
  0.53018810E+01  0.45588821E+01  0.38807900E+01  0.32641768E+01  0.27056581E+01
  0.22019025E+01  0.17496400E+01  0.13456705E+01  0.98687019E+00  0.67019847E+00
  0.39270362E+00  0.15152776E+00 -0.56088733E-01 -0.23280355E+00 -0.38116940E+00
 -0.50363155E+00 -0.60252595E+00 -0.68007801E+00 -0.73840179E+00 -0.77949978E+00
 -0.80526319E+00 -0.81747255E+00 -0.81779892E+00 -0.80780536E+00 -0.78894880E+00
 -0.76258223E+00 -0.72995724E+00 -0.69222676E+00 -0.65044810E+00 -0.60558615E+00
 -0.55851682E+00 -0.51003058E+00 -0.46083619E+00 -0.41156449E+00 -0.36277228E+00
 -0.31494628E+00 -0.26850708E+00 -0.22381316E+00 -0.18116485E+00 -0.14080831E+00
 -0.10293941E+00 -0.67707652E-01 -0.35219865E-01 -0.55439723E-02  0.21287447E-01
  0.45273665E-01  0.66442443E-01  0.84846795E-01  0.10056189E+00  0.11368210E+00
  0.12431819E+00  0.13259467E+00  0.13864726E+00  0.14262062E+00  0.14466607E+00
  0.14493964E+00  0.14360017E+00  0.14080758E+00  0.13672132E+00  0.13149899E+00
  0.12529502E+00  0.11825958E+00  0.11053760E+00  0.10226789E+00  0.93582478E-01
  0.84605925E-01  0.75454906E-01  0.66237804E-01  0.57054441E-01  0.47995900E-01
  0.39144437E-01  0.30573471E-01  0.22347659E-01  0.14523027E-01  0.71471722E-02
  0.25952019E-03 -0.61083749E-02 -0.11932482E-01 -0.17195911E-01 -0.21888500E-01
 -0.26006374E-01 -0.29551493E-01 -0.32531175E-01 -0.34957619E-01 -0.36847417E-01
 -0.38221065E-01 -0.39102487E-01 -0.39518552E-01 -0.39498612E-01 -0.39074047E-01
 -0.38277833E-01 -0.37144119E-01 -0.35707835E-01 -0.34004309E-01 -0.32068924E-01
 -0.29936786E-01 -0.27642421E-01 -0.25219508E-01 -0.22700622E-01 -0.20117020E-01
 -0.17498443E-01 -0.14872950E-01 -0.12266776E-01 -0.97042164E-02 -0.72075376E-02
 -0.47969078E-02 -0.24903539E-02 -0.30373867E-03  0.17492412E-02  0.36570383E-02
  0.54102199E-02  0.70014166E-02  0.84252574E-02  0.96782901E-02  0.10758891E-01
  0.11667163E-01  0.12404829E-01  0.12975110E-01  0.13382605E-01  0.13633166E-01
  0.13733763E-01  0.13692356E-01  0.13517759E-01  0.13219510E-01  0.12807739E-01
  0.12293043E-01  0.11686359E-01  0.10998844E-01  0.10241762E-01  0.94263766E-02
  0.85638441E-02  0.76651222E-02  0.67408801E-02  0.58014185E-02  0.48565966E-02
  0.39157683E-02  0.29877251E-02  0.20806482E-02  0.12020687E-02  0.35883475E-03
 -0.44291196E-03 -0.11977534E-02 -0.19010043E-02 -0.25487147E-02 -0.31376657E-02
 -0.36653590E-02 -0.41300004E-02 -0.45304787E-02 -0.48663387E-02 -0.51377507E-02
 -0.53454756E-02 -0.54908267E-02 -0.55756292E-02 -0.56021761E-02 -0.55731837E-02
 -0.54917446E-02 -0.53612801E-02 -0.51854928E-02 -0.49683179E-02 -0.47138760E-02
 -0.44264266E-02 -0.41103216E-02 -0.37699622E-02 -0.34097557E-02 -0.30340756E-02
 -0.26472236E-02 -0.22533939E-02 -0.18566409E-02 -0.14608488E-02 -0.10697050E-02
 -0.68667642E-03 -0.31498815E-03  0.42393580E-04  0.38277608E-03  0.70375147E-03
  0.10032050E-02  0.12793201E-02  0.15305811E-02  0.17557725E-02  0.19539761E-02
  0.21245652E-02  0.22671971E-02  0.23818028E-02  0.24685749E-02  0.25279541E-02
  0.25606138E-02  0.25674433E-02  0.25495298E-02  0.25081401E-02  0.24447004E-02
  0.23607769E-02  0.22580547E-02  0.21383179E-02  0.20034283E-02  0.18553061E-02
  0.16959089E-02  0.15272131E-02  0.13511949E-02  0.11698124E-02  0.98498891E-03
  0.79859663E-03  0.61244230E-03  0.42825350E-03  0.24766640E-03  0.72214910E-04
 -0.96678906E-04 -0.25771293E-03 -0.40971174E-03 -0.55163188E-03 -0.68256582E-03
 -0.80174448E-03 -0.90853842E-03 -0.10024578E-02 -0.10831509E-02 -0.11504019E-02
 -0.12041270E-02 -0.12443698E-02 -0.12712961E-02 -0.12851869E-02 -0.12864316E-02
 -0.12755199E-02 -0.12530335E-02 -0.12196371E-02 -0.11760690E-02 -0.11231317E-02
 -0.10616820E-02 -0.99262099E-03 -0.91688442E-03 -0.83543270E-03 -0.74924131E-03
 -0.65929144E-03 -0.56656084E-03 -0.47201516E-03 -0.37659968E-03 -0.28123155E-03
 -0.18679262E-03 -0.94122741E-04 -0.40138574E-05  0.82795374E-04  0.16562423E-03
  0.24385388E-03  0.31693066E-03  0.38436864E-03  0.44575146E-03  0.50073353E-03
  0.54904051E-03  0.59046914E-03  0.62488649E-03  0.65222857E-03  0.67249836E-03
  0.68576334E-03  0.69215256E-03  0.69185323E-03  0.68510690E-03  0.67220536E-03
  0.65348619E-03  0.62932803E-03  0.60014576E-03  0.56638542E-03  0.52851908E-03
  0.48703967E-03  0.44245581E-03  0.39528663E-03  0.34605672E-03  0.29529125E-03
  0.24351115E-03  0.19122860E-03  0.13894269E-03  0.87135380E-04  0.36267723E-04
 -0.13223556E-04 -0.60929178E-04 -0.10647006E-03 -0.14949971E-03 -0.18970625E-03
 -0.22681405E-03 -0.26058498E-03 -0.29081933E-03 -0.31735628E-03 -0.34007408E-03
 -0.35888982E-03 -0.37375891E-03 -0.38467416E-03 -0.39166469E-03 -0.39479437E-03
 -0.39416018E-03 -0.38989020E-03 -0.38214146E-03 -0.37109756E-03 -0.35696615E-03
 -0.33997631E-03 -0.32037574E-03 -0.29842795E-03 -0.27440938E-03 -0.24860646E-03
 -0.22131276E-03 -0.19282606E-03 -0.16344556E-03 -0.13346912E-03 -0.10319063E-03
 -0.72897497E-04 -0.42868215E-04 -0.13370173E-04  0.15342425E-04  0.43030434E-04
  0.69471460E-04  0.94461341E-04  0.11781542E-03  0.13936962E-03  0.15898126E-03
  0.17652971E-03  0.19191680E-03  0.20506699E-03  0.21592739E-03  0.22446754E-03
  0.23067899E-03  0.23457472E-03  0.23618836E-03  0.23557331E-03  0.23280158E-03
  0.22796268E-03  0.22116222E-03  0.21252048E-03  0.20217095E-03  0.19025865E-03
  0.17693854E-03  0.16237382E-03  0.14673420E-03  0.13019417E-03  0.11293132E-03
  0.95124629E-04  0.76952811E-04  0.58592713E-04  0.40217773E-04  0.21996562E-04
  0.40913993E-05 -0.13342929E-04 -0.30160349E-04 -0.46224562E-04 -0.61410000E-04
 -0.75602643E-04 -0.88700725E-04 -0.10061530E-03 -0.11127068E-03 -0.12060474E-03
 -0.12856909E-03 -0.13512916E-03 -0.14026407E-03 -0.14396646E-03 -0.14624220E-03
 -0.14710992E-03 -0.14660053E-03 -0.14475658E-03 -0.14163156E-03 -0.13728912E-03
 -0.13180220E-03 -0.12525214E-03 -0.11772768E-03 -0.10932402E-03 -0.10014171E-03
 -0.90285663E-04 -0.79864050E-04 -0.68987254E-04 -0.57766811E-04 -0.46314376E-04
 -0.34740711E-04 -0.23154711E-04 -0.11662476E-04 -0.36642554E-06  0.10635524E-04
  0.21250723E-04  0.31392480E-04  0.40980692E-04  0.49942384E-04  0.58212185E-04
  0.65732712E-04  0.72454881E-04  0.78338129E-04  0.83350559E-04  0.87468998E-04
  0.90678981E-04  0.92974656E-04  0.94358611E-04  0.94841634E-04  0.94442401E-04
  0.93187110E-04  0.91109047E-04  0.88248105E-04  0.84650257E-04  0.80366987E-04
  0.75454681E-04  0.69974000E-04  0.63989223E-04  0.57567573E-04  0.50778542E-04
  0.43693205E-04  0.36383538E-04  0.28921752E-04  0.21379631E-04  0.13827899E-04
  0.63356069E-05 -0.10304439E-05 -0.82062519E-05 -0.15131121E-04 -0.21748124E-04
 -0.28004527E-04 -0.33852155E-04 -0.39247721E-04 -0.44153088E-04 -0.48535495E-04
 -0.52367713E-04 -0.55628163E-04 -0.58300966E-04 -0.60375951E-04 -0.61848611E-04
 -0.62720000E-04 -0.62996595E-04 -0.62690106E-04 -0.61817242E-04 -0.60399442E-04
 -0.58462572E-04 -0.56036580E-04 -0.53155134E-04 -0.49855226E-04 -0.46176765E-04
 -0.42162143E-04 -0.37855798E-04 -0.33303763E-04 -0.28553214E-04 -0.23652022E-04
 -0.18648298E-04 -0.13589961E-04 -0.85243071E-05 -0.34975978E-05  0.14453308E-05
  0.62614403E-05  0.10909836E-04  0.15352084E-04  0.19552503E-04  0.23478422E-04
  0.27100404E-04  0.30392437E-04  0.33332092E-04  0.35900639E-04  0.38083137E-04
  0.39868478E-04  0.41249400E-04  0.42222467E-04  0.42788015E-04  0.42950056E-04
  0.42716168E-04  0.42097342E-04  0.41107807E-04  0.39764826E-04  0.38088479E-04
  0.36101413E-04  0.33828586E-04  0.31296985E-04  0.28535342E-04  0.25573836E-04
  0.22443786E-04  0.19177348E-04  0.15807203E-04  0.12366254E-04  0.88873235E-05
  0.54028575E-05  0.19446451E-05 -0.14564556E-05 -0.47707751E-05 -0.79700735E-05
 -0.11027764E-04 -0.13919117E-04 -0.16621440E-04 -0.19114244E-04 -0.21379375E-04
 -0.23401126E-04 -0.25166335E-04 -0.26664437E-04 -0.27887512E-04 -0.28830299E-04
 -0.29490180E-04 -0.29867157E-04 -0.29963789E-04 -0.29785117E-04 -0.29338566E-04
 -0.28633827E-04 -0.27682725E-04 -0.26499063E-04 -0.25098458E-04 -0.23498162E-04
 -0.21716873E-04 -0.19774538E-04 -0.17692140E-04 -0.15491496E-04 -0.13195040E-04
 -0.10825604E-04 -0.84062104E-05 -0.59598570E-05 -0.35093109E-05 -0.10769086E-05
  0.13156370E-05  0.36474186E-05  0.58985069E-05  0.80501099E-05  0.10084719E-04
  0.11986240E-04  0.13740111E-04  0.15333399E-04  0.16754888E-04  0.17995141E-04
  0.19046551E-04  0.19903371E-04  0.20561733E-04  0.21019637E-04  0.21276939E-04
  0.21335311E-04  0.21198190E-04  0.20870713E-04  0.20359634E-04  0.19673236E-04
  0.18821219E-04  0.17814593E-04  0.16665542E-04  0.15387303E-04  0.13994016E-04
  0.12500583E-04  0.10922521E-04  0.92758050E-05  0.75767182E-05  0.58416991E-05
  0.40871898E-05  0.23294877E-05  0.58460191E-06 -0.11318856E-05 -0.28049521E-05
 -0.44202584E-05 -0.59642650E-05 -0.74243385E-05 -0.87888479E-05 -0.10047250E-04
 -0.11190164E-04 -0.12209432E-04 -0.13098171E-04 -0.13850809E-04 -0.14463113E-04
 -0.14932197E-04 -0.15256524E-04 -0.15435898E-04 -0.15471434E-04 -0.15365527E-04
 -0.15121807E-04 -0.14745078E-04 -0.14241259E-04 -0.13617304E-04 -0.12881124E-04
 -0.12041495E-04 -0.11107964E-04 -0.10090749E-04 -0.90006307E-05 -0.78488516E-05
 -0.66470001E-05 -0.54069021E-05 -0.41405102E-05 -0.28597927E-05 -0.15766263E-05
 -0.30269039E-06  0.95063441E-06  0.21723633E-05  0.33519992E-05  0.44796177E-05
  0.55459468E-05  0.65424380E-05  0.74613301E-05  0.82957048E-05  0.90395337E-05
  0.96877165E-05  0.10236110E-04  0.10681547E-04  0.11021849E-04  0.11255827E-04
  0.11383275E-04  0.11404953E-04  0.11322561E-04  0.11138712E-04  0.10856888E-04
  0.10481394E-04  0.10017304E-04  0.94704030E-05  0.88471203E-05  0.81544616E-05
  0.73999348E-05  0.65914737E-05  0.57373587E-05  0.48461365E-05  0.39265379E-05
  0.29873962E-05  0.20375657E-05  0.10858415E-05  0.14088123E-06 -0.78887021E-06
 -0.16952534E-05 -0.25704626E-05 -0.34071103E-05 -0.41982860E-05 -0.49376105E-05
 -0.56192839E-05 -0.62381280E-05 -0.67896220E-05 -0.72699320E-05 -0.76759333E-05
 -0.80052270E-05 -0.82561481E-05 -0.84277687E-05 -0.85198934E-05 -0.85330482E-05
 -0.84684638E-05 -0.83280522E-05 -0.81143777E-05 -0.78306231E-05 -0.74805499E-05
 -0.70684551E-05 -0.65991228E-05 -0.60777734E-05 -0.55100085E-05 -0.49017547E-05
 -0.42592041E-05 -0.35887545E-05 -0.28969477E-05 -0.21904088E-05 -0.14757845E-05
 -0.75968330E-06 -0.48616281E-07  0.65105975E-06  0.13331970E-05  0.19919088E-05
  0.26216178E-05  0.32171017E-05  0.37735338E-05  0.42865205E-05  0.47521333E-05
  0.51669366E-05  0.55280106E-05  0.58329689E-05  0.60799716E-05  0.62677322E-05
  0.63955209E-05  0.64631615E-05  0.64710241E-05  0.64200126E-05  0.63115481E-05
  0.61475478E-05  0.59303989E-05  0.56629303E-05  0.53483793E-05  0.49903563E-05
  0.45928057E-05  0.41599654E-05  0.36963233E-05  0.32065737E-05  0.26955708E-05
  0.21682828E-05  0.16297452E-05  0.10850144E-05  0.53912192E-06 -0.29709744E-08
 -0.53641641E-06 -0.10565220E-05 -0.15587906E-05 -0.20389576E-05 -0.24930260E-05
 -0.29172979E-05 -0.33084029E-05 -0.36633238E-05 -0.39794179E-05 -0.42544347E-05
 -0.44865304E-05 -0.46742779E-05 -0.48166729E-05 -0.49131369E-05 -0.49635150E-05
 -0.49680712E-05 -0.49274791E-05 -0.48428098E-05 -0.47155156E-05 -0.45474114E-05
 -0.43406524E-05 -0.40977095E-05 -0.38213420E-05 -0.35145685E-05 -0.31806354E-05
 -0.28229846E-05 -0.24452186E-05 -0.20510666E-05 -0.16443480E-05 -0.12289372E-05
 -0.80872774E-06 -0.38759664E-06  0.30630012E-07  0.44221088E-06  0.84352177E-06
  0.12310865E-05  0.16016060E-05  0.19519853E-05  0.22793584E-05  0.25811105E-05
  0.28548978E-05  0.30986647E-05  0.33106576E-05  0.34894364E-05  0.36338828E-05
  0.37432053E-05  0.38169415E-05  0.38549576E-05  0.38574440E-05  0.38249095E-05
  0.37581713E-05  0.36583437E-05  0.35268227E-05  0.33652703E-05  0.31755945E-05
  0.29599291E-05  0.27206112E-05  0.24601566E-05  0.21812347E-05  0.18866424E-05
  0.15792766E-05  0.12621072E-05  0.93814835E-06  0.61043162E-06  0.28197775E-06
 -0.44230164E-07 -0.36527302E-06 -0.67832113E-06 -0.98065838E-06 -0.12697050E-05
 -0.15430390E-05 -0.17984155E-05 -0.20337845E-05 -0.22473063E-05 -0.24373656E-05
 -0.26025819E-05 -0.27418195E-05 -0.28541935E-05 -0.29390745E-05 -0.29960902E-05
 -0.30251257E-05 -0.30263202E-05 -0.30000624E-05 -0.29469832E-05 -0.28679470E-05
 -0.27640398E-05 -0.26365571E-05 -0.24869884E-05 -0.23170018E-05 -0.21284256E-05
 -0.19232303E-05 -0.17035083E-05 -0.14714535E-05 -0.12293400E-05 -0.97950066E-06
 -0.72430501E-06 -0.46613748E-06 -0.20737568E-06  0.49630920E-07  0.30258179E-06
  0.54924538E-06  0.78747825E-06  0.10152432E-05  0.12306260E-05  0.14318513E-05
  0.16172960E-05  0.17855026E-05  0.19351893E-05  0.20652595E-05  0.21748090E-05
  0.22631315E-05  0.23297221E-05  0.23742792E-05  0.23967045E-05  0.23971006E-05
  0.23757678E-05  0.23331985E-05  0.22700701E-05  0.21872362E-05  0.20857166E-05
  0.19666860E-05  0.18314610E-05  0.16814863E-05  0.15183203E-05  0.13436189E-05
  0.11591198E-05  0.96662530E-06  0.76798541E-06  0.56508049E-06  0.35980381E-06
  0.15404438E-06 -0.50330046E-07 -0.25148954E-06 -0.44765793E-06 -0.63712816E-06
 -0.81827666E-06 -0.98957691E-06 -0.11496119E-05 -0.12970853E-05 -0.14308318E-05
 -0.15498256E-05 -0.16531878E-05 -0.17401925E-05 -0.18102712E-05 -0.18630158E-05
 -0.18981802E-05 -0.19156803E-05 -0.19155928E-05 -0.18981519E-05 -0.18637455E-05
 -0.18129096E-05 -0.17463215E-05 -0.16647917E-05 -0.15692548E-05 -0.14607597E-05
 -0.13404583E-05 -0.12095942E-05 -0.10694897E-05 -0.92153329E-06 -0.76716617E-06
 -0.60786844E-06 -0.44514532E-06 -0.28051331E-06 -0.11548627E-06  0.48438138E-07
  0.20979174E-06  0.36714870E-06  0.51913787E-06  0.66445437E-06  0.80187053E-06
  0.93024595E-06  0.10485366E-05  0.11558032E-05  0.12512178E-05  0.13340706E-05
  0.14037741E-05  0.14598672E-05  0.15020176E-05  0.15300231E-05  0.15438120E-05
  0.15434418E-05  0.15290971E-05  0.15010862E-05  0.14598371E-05  0.14058917E-05
  0.13398996E-05  0.12626110E-05  0.11748686E-05  0.10775985E-05  0.97180132E-06
  0.85854185E-06  0.73893881E-06  0.61415399E-06  0.48538129E-06  0.35383551E-06
  0.22074118E-06  0.87321339E-07 -0.45213432E-07 -0.17567578E-06 -0.30291199E-06
 -0.42581197E-06 -0.54331871E-06 -0.65443712E-06 -0.75824227E-06 -0.85388684E-06
 -0.94060774E-06 -0.10177320E-05 -0.10846817E-05 -0.11409780E-05 -0.11862441E-05
 -0.12202076E-05 -0.12427015E-05 -0.12536644E-05 -0.12531398E-05 -0.12412744E-05
 -0.12183154E-05 -0.11846073E-05 -0.11405871E-05 -0.10867799E-05 -0.10237924E-05
 -0.95230691E-06 -0.87307399E-06 -0.78690499E-06 -0.69466394E-06 -0.59725911E-06
 -0.49563427E-06 -0.39075981E-06 -0.28362356E-06 -0.17522176E-06 -0.66549951E-07
  0.41406024E-07  0.14767875E-06  0.25132777E-06  0.35144771E-06  0.44717604E-06
  0.53770031E-06  0.62226489E-06  0.70017708E-06  0.77081262E-06  0.83362046E-06
  0.88812687E-06  0.93393876E-06  0.97074627E-06  0.99832457E-06  0.10165349E-05
  0.10253246E-05  0.10247268E-05  0.10148591E-05  0.99592120E-06  0.96819241E-06
  0.93202807E-06  0.88785545E-06  0.83616904E-06  0.77752531E-06  0.71253692E-06
 atomic pseudo charge-density
  0.70000000E+01  0.69862810E+01  0.69452920E+01  0.68775310E+01  0.67838151E+01
  0.66652599E+01  0.65232534E+01  0.63594235E+01  0.61756017E+01  0.59737832E+01
  0.57560860E+01  0.55247096E+01  0.52818942E+01  0.50298831E+01  0.47708873E+01
  0.45070544E+01  0.42404408E+01  0.39729900E+01  0.37065135E+01  0.34426782E+01
  0.31829958E+01  0.29288186E+01  0.26813362E+01  0.24415778E+01  0.22104148E+01
  0.19885675E+01  0.17766119E+01  0.15749888E+01  0.13840138E+01  0.12038867E+01
  0.10347031E+01  0.87646431E+00  0.72908807E+00  0.59241876E+00  0.46623710E+00
  0.35026945E+00  0.24419642E+00  0.14766099E+00  0.60275910E-01 -0.18369528E-01
 -0.88703318E-01 -0.15116522E+00 -0.20620183E+00 -0.25426219E+00 -0.29579396E+00
 -0.33124011E+00 -0.36103599E+00 -0.38560695E+00 -0.40536625E+00 -0.42071342E+00
 -0.43203284E+00 -0.43969274E+00 -0.44404435E+00 -0.44542139E+00 -0.44413967E+00
 -0.44049700E+00 -0.43477308E+00 -0.42722976E+00 -0.41811120E+00 -0.40764431E+00
 -0.39603916E+00 -0.38348950E+00 -0.37017338E+00 -0.35625372E+00 -0.34187901E+00
 -0.32718399E+00 -0.31229033E+00 -0.29730736E+00 -0.28233277E+00 -0.26745332E+00
 -0.25274551E+00 -0.23827634E+00 -0.22410386E+00 -0.21027793E+00 -0.19684077E+00
 -0.18382760E+00 -0.17126719E+00 -0.15918242E+00 -0.14759083E+00 -0.13650505E+00
 -0.12593335E+00 -0.11588001E+00 -0.10634579E+00 -0.97328276E-01 -0.88822273E-01
 -0.80820137E-01 -0.73312086E-01 -0.66286495E-01 -0.59730166E-01 -0.53628578E-01
 -0.47966117E-01 -0.42726284E-01 -0.37891890E-01 -0.33445226E-01 -0.29368227E-01
 -0.25642614E-01 -0.22250021E-01 -0.19172112E-01 -0.16390685E-01 -0.13887762E-01
 -0.11645670E-01 -0.96471114E-02 -0.78752229E-02 -0.63136297E-02 -0.49464881E-02
 -0.37585216E-02 -0.27350508E-02 -0.18620161E-02 -0.11259951E-02 -0.51421444E-03
 -0.14557329E-04  0.38443398E-03  0.69355910E-03  0.92296415E-03  0.10821495E-02
  0.11799803E-02  0.12246996E-02  0.12239432E-02  0.11847573E-02  0.11136165E-02
  0.10164442E-02  0.89863351E-03  0.76506947E-03  0.62015171E-03  0.46781768E-03
  0.31156638E-03  0.15448213E-03 -0.74145196E-06 -0.15177766E-03 -0.29664296E-03
 -0.43367367E-03 -0.56150287E-03 -0.67903791E-03 -0.78543836E-03 -0.88009461E-03
 -0.96260709E-03 -0.10327663E-02 -0.10905334E-02 -0.11360218E-02 -0.11694794E-02
 -0.11912720E-02 -0.12018670E-02 -0.12018181E-02 -0.11917519E-02 -0.11723535E-02
 -0.11443548E-02 -0.11085225E-02 -0.10656473E-02 -0.10165343E-02 -0.96199376E-03
 -0.90283267E-03 -0.83984758E-03 -0.77381774E-03 -0.70549922E-03 -0.63561961E-03
 -0.56487360E-03 -0.49391899E-03 -0.42337353E-03 -0.35381224E-03 -0.28576537E-03
 -0.21971683E-03 -0.15610317E-03 -0.95313012E-04 -0.37686929E-04  0.16482298E-04
  0.66949029E-04  0.11351379E-03  0.15602200E-03  0.19436239E-03  0.22846524E-03
  0.25830037E-03  0.28387491E-03  0.30523102E-03  0.32244337E-03  0.33561662E-03
  0.34488273E-03  0.35039831E-03  0.35234188E-03  0.35091116E-03  0.34632035E-03
  0.33879745E-03  0.32858165E-03  0.31592076E-03  0.30106873E-03  0.28428327E-03
  0.26582357E-03  0.24594815E-03  0.22491280E-03  0.20296869E-03  0.18036064E-03
  0.15732545E-03  0.13409045E-03  0.11087223E-03  0.87875388E-04  0.65291606E-04
  0.43298744E-04  0.22060151E-04  0.17241060E-05 -0.17576595E-04 -0.35724908E-04
 -0.52619677E-04 -0.68175640E-04 -0.82323310E-04 -0.95008740E-04 -0.10619318E-03
 -0.11585263E-03 -0.12397731E-03 -0.13057101E-03 -0.13565044E-03 -0.13924440E-03
 -0.14139302E-03 -0.14214683E-03 -0.14156588E-03 -0.13971879E-03 -0.13668175E-03
 -0.13253756E-03 -0.12737466E-03 -0.12128608E-03 -0.11436851E-03 -0.10672129E-03
 -0.98445506E-04 -0.89643049E-04 -0.80415734E-04 -0.70864461E-04 -0.61088417E-04
 -0.51184325E-04 -0.41245744E-04 -0.31362431E-04 -0.21619754E-04 -0.12098167E-04
 -0.28727528E-05  0.59871823E-05  0.14418440E-04  0.22364203E-04  0.29774247E-04
  0.36605083E-04  0.42820049E-04  0.48389334E-04  0.53289949E-04  0.57505641E-04
  0.61026763E-04  0.63850081E-04  0.65978553E-04  0.67421050E-04  0.68192053E-04
  0.68311304E-04  0.67803436E-04  0.66697573E-04  0.65026908E-04  0.62828265E-04
  0.60141646E-04  0.57009773E-04  0.53477615E-04  0.49591927E-04  0.45400780E-04
  0.40953104E-04  0.36298238E-04  0.31485494E-04  0.26563738E-04  0.21580984E-04
  0.16584021E-04  0.11618051E-04  0.67263623E-05  0.19500265E-05 -0.26723749E-05
 -0.71049928E-05 -0.11314922E-04 -0.15272380E-04 -0.18950852E-04 -0.22327210E-04
 -0.25381789E-04 -0.28098437E-04 -0.30464539E-04 -0.32470996E-04 -0.34112193E-04
 -0.35385921E-04 -0.36293286E-04 -0.36838587E-04 -0.37029169E-04 -0.36875263E-04
 -0.36389798E-04 -0.35588198E-04 -0.34488173E-04 -0.33109481E-04 -0.31473700E-04
 -0.29603971E-04 -0.27524755E-04 -0.25261572E-04 -0.22840748E-04 -0.20289158E-04
 -0.17633978E-04 -0.14902431E-04 -0.12121559E-04 -0.93179813E-05 -0.65176838E-05
 -0.37458074E-05 -0.10264557E-05  0.16174839E-05  0.41645033E-05  0.65946194E-05
  0.88895030E-05  0.11032589E-04  0.13009168E-04  0.14806460E-04  0.16413669E-04
  0.17822015E-04  0.19024758E-04  0.20017190E-04  0.20796619E-04  0.21362335E-04
  0.21715555E-04  0.21859357E-04  0.21798601E-04  0.21539831E-04  0.21091171E-04
  0.20462207E-04  0.19663862E-04  0.18708259E-04  0.17608580E-04  0.16378921E-04
  0.15034142E-04  0.13589712E-04  0.12061556E-04  0.10465902E-04  0.88191265E-05
  0.71376094E-05  0.54375847E-05  0.37350027E-05  0.20453958E-05  0.38375194E-06
 -0.12356031E-05 -0.27991156E-05 -0.42941029E-05 -0.57088429E-05 -0.70326522E-05
 -0.82559537E-05 -0.93703320E-05 -0.10368577E-04 -0.11244718E-04 -0.11994041E-04
 -0.12613100E-04 -0.13099715E-04 -0.13452955E-04 -0.13673117E-04 -0.13761691E-04
 -0.13721313E-04 -0.13555717E-04 -0.13269667E-04 -0.12868894E-04 -0.12360017E-04
 -0.11750460E-04 -0.11048368E-04 -0.10262516E-04 -0.94022094E-05 -0.84771951E-05
 -0.74975569E-05 -0.64736197E-05 -0.54158499E-05 -0.43347587E-05 -0.32408061E-05
 -0.21443088E-05 -0.10553509E-05  0.16300755E-07  0.10612768E-05  0.20706794E-05
  0.30361511E-05  0.39499366E-05  0.48049382E-05  0.55947634E-05  0.63137658E-05
  0.69570777E-05  0.75206358E-05  0.80011981E-05  0.83963540E-05  0.87045262E-05
  0.89249650E-05  0.90577361E-05  0.91037004E-05  0.90644878E-05  0.89424647E-05
  0.87406953E-05  0.84628977E-05  0.81133956E-05  0.76970648E-05  0.72192768E-05
  0.66858387E-05  0.61029309E-05  0.54770427E-05  0.48149063E-05  0.41234310E-05
  0.34096359E-05  0.26805847E-05  0.19433201E-05  0.12048012E-05  0.47184144E-06
 -0.24894896E-06 -0.95121893E-06 -0.16289282E-05 -0.22763950E-05 -0.28883401E-05
 -0.34599253E-05 -0.39867881E-05 -0.44650704E-05 -0.48914429E-05 -0.52631236E-05
 -0.55778912E-05 -0.58340932E-05 -0.60306485E-05 -0.61670450E-05 -0.62433318E-05
 -0.62601072E-05 -0.62185008E-05 -0.61201527E-05 -0.59671870E-05 -0.57621828E-05
 -0.55081405E-05 -0.52084461E-05 -0.48668321E-05 -0.44873361E-05 -0.40742578E-05
 -0.36321142E-05 -0.31655941E-05 -0.26795117E-05 -0.21787600E-05 -0.16682650E-05
 -0.11529395E-05 -0.63763891E-06 -0.12711832E-06  0.37400920E-06  0.86131158E-06
  0.13305745E-05  0.17778356E-05  0.21994152E-05  0.25919446E-05  0.29523901E-05
  0.32780743E-05  0.35666934E-05  0.38163304E-05  0.40254654E-05  0.41929810E-05
  0.43181649E-05  0.44007084E-05  0.44407006E-05  0.44386207E-05  0.43953249E-05
  0.43120319E-05  0.41903043E-05  0.40320274E-05  0.38393861E-05  0.36148386E-05
  0.33610887E-05  0.30810563E-05  0.27778464E-05  0.24547174E-05  0.21150475E-05
  0.17623023E-05  0.14000008E-05  0.10316825E-05  0.66087401E-06  0.29105748E-06
 -0.74360727E-07 -0.43207984E-06 -0.77893294E-06 -0.11119135E-05 -0.14281999E-05
 -0.17251779E-05 -0.20004607E-05 -0.22519068E-05 -0.24776348E-05 -0.26760357E-05
 -0.28457831E-05 -0.29858397E-05 -0.30954618E-05 -0.31742002E-05 -0.32218996E-05
 -0.32386939E-05 -0.32250000E-05 -0.31815089E-05 -0.31091738E-05 -0.30091973E-05
 -0.28830151E-05 -0.27322787E-05 -0.25588368E-05 -0.23647138E-05 -0.21520889E-05
 -0.19232725E-05 -0.16806831E-05 -0.14268227E-05 -0.11642527E-05 -0.89556863E-06
 -0.62337623E-06 -0.35026688E-06 -0.78794148E-07  0.18854912E-06  0.44935269E-06
  0.70130970E-06  0.94223608E-06  0.11700885E-05  0.13829809E-05  0.15791989E-05
  0.17572126E-05  0.19156876E-05  0.20534941E-05  0.21697130E-05  0.22636418E-05
  0.23347962E-05  0.23829118E-05  0.24079419E-05  0.24100547E-05  0.23896279E-05
  0.23472415E-05  0.22836692E-05  0.21998676E-05  0.20969645E-05  0.19762456E-05
  0.18391398E-05  0.16872034E-05  0.15221038E-05  0.13456024E-05  0.11595360E-05
  0.96579951E-06  0.76632661E-06  0.56307173E-06  0.35799144E-06  0.15302635E-06
 -0.49916591E-07 -0.24898112E-06 -0.44237803E-06 -0.62840059E-06 -0.80543899E-06
 -0.97199359E-06 -0.11266870E-05 -0.12682748E-05 -0.13956550E-05 -0.15078754E-05
 -0.16041408E-05 -0.16838170E-05 -0.17464343E-05 -0.17916893E-05 -0.18194450E-05
 -0.18297291E-05 -0.18227312E-05 -0.17987984E-05 -0.17584298E-05 -0.17022690E-05
 -0.16310959E-05 -0.15458175E-05 -0.14474574E-05 -0.13371440E-05 -0.12160991E-05
 -0.10856244E-05 -0.94708862E-06 -0.80191338E-06 -0.65155948E-06 -0.49751255E-06
 -0.34126894E-06 -0.18432166E-06 -0.28146562E-07  0.12581105E-06  0.27614937E-06
  0.42152238E-06  0.56065153E-06  0.69233645E-06  0.81546495E-06  0.92902193E-06
  0.10320973E-05  0.11238927E-05  0.12037273E-05  0.12710423E-05  0.13254042E-05
  0.13665066E-05  0.13941717E-05  0.14083493E-05  0.14091159E-05  0.13966714E-05
  0.13713360E-05  0.13335448E-05  0.12838425E-05  0.12228763E-05  0.11513886E-05
  0.10702083E-05  0.98024202E-06  0.88246460E-06  0.77790876E-06  0.66765473E-06
  0.55281947E-06  0.43454578E-06  0.31399122E-06  0.19231715E-06  0.70677884E-07
 -0.49789942E-07 -0.16797769E-06 -0.28281462E-06 -0.39327724E-06 -0.49839817E-06
 -0.59727430E-06 -0.68907419E-06 -0.77304482E-06 -0.84851734E-06 -0.91491216E-06
 -0.97174291E-06 -0.10186197E-05 -0.10552512E-05 -0.10814460E-05 -0.10971130E-05
 -0.11022606E-05 -0.10969951E-05 -0.10815188E-05 -0.10561259E-05 -0.10211993E-05
 -0.97720498E-06 -0.92468694E-06 -0.86426078E-06 -0.79660703E-06 -0.72246380E-06
 -0.64261912E-06 -0.55790286E-06 -0.46917839E-06 -0.37733407E-06 -0.28327461E-06
 -0.18791239E-06 -0.92158872E-07  0.30839106E-08  0.96931594E-07  0.18852549E-06
  0.27704023E-06  0.36169097E-06  0.44174012E-06  0.51650361E-06  0.58535643E-06
  0.64773766E-06  0.70315482E-06  0.75118743E-06  0.79148999E-06  0.82379409E-06
  0.84790987E-06  0.86372666E-06  0.87121291E-06  0.87041540E-06  0.86145768E-06
  0.84453785E-06  0.81992570E-06  0.78795915E-06  0.74904021E-06  0.70363027E-06
  0.65224504E-06  0.59544894E-06  0.53384916E-06  0.46808944E-06  0.39884354E-06
  0.32680850E-06  0.25269788E-06  0.17723483E-06  0.10114522E-06  0.25150814E-07
 -0.50037378E-07 -0.12372563E-06 -0.19524372E-06 -0.26395087E-06 -0.32924133E-06
 -0.39054957E-06 -0.44735498E-06 -0.49918618E-06 -0.54562469E-06 -0.58630819E-06
 -0.62093308E-06 -0.64925659E-06 -0.67109815E-06 -0.68634034E-06 -0.69492905E-06
 -0.69687317E-06 -0.69224368E-06 -0.68117213E-06 -0.66384862E-06 -0.64051922E-06
 -0.61148296E-06 -0.57708829E-06 -0.53772920E-06 -0.49384092E-06 -0.44589530E-06
 -0.39439592E-06 -0.33987297E-06 -0.28287794E-06 -0.22397818E-06 -0.16375139E-06
 -0.10278009E-06 -0.41646093E-07  0.19074898E-07  0.78818616E-07  0.13703734E-06
  0.19320482E-06  0.24682087E-06  0.29741578E-06  0.34455423E-06  0.38783897E-06
  0.42691401E-06  0.46146744E-06  0.49123375E-06  0.51599570E-06  0.53558578E-06
  0.54988710E-06  0.55883380E-06  0.56241107E-06  0.56065460E-06  0.55364959E-06
  0.54152931E-06  0.52447328E-06  0.50270496E-06  0.47648909E-06  0.44612873E-06
  0.41196189E-06  0.37435792E-06  0.33371372E-06  0.29044959E-06  0.24500505E-06
  0.19783447E-06  0.14940264E-06  0.10018028E-06  0.50639545E-07  0.12496115E-08
 -0.47527686E-07 -0.95242083E-07 -0.14145896E-06 -0.18576320E-06 -0.22776284E-06
 -0.26709246E-06 -0.30341624E-06 -0.33643077E-06 -0.36586745E-06 -0.39149459E-06
 -0.41311913E-06 -0.43058794E-06 -0.44378876E-06 -0.45265076E-06 -0.45714468E-06
 -0.45728259E-06 -0.45311725E-06 -0.44474113E-06 -0.43228505E-06 -0.41591648E-06
 -0.39583751E-06 -0.37228255E-06 -0.34551571E-06 -0.31582799E-06 -0.28353419E-06
 -0.24896972E-06 -0.21248714E-06 -0.17445272E-06 -0.13524277E-06 -0.95240041E-07
 -0.54830050E-07 -0.14397422E-07  0.25677689E-07  0.65023115E-07  0.10327806E-06
  0.14009634E-06  0.17514946E-06  0.20812945E-06  0.23875156E-06  0.26675657E-06
  0.29191298E-06  0.31401879E-06  0.33290307E-06  0.34842721E-06  0.36048575E-06
  0.36900706E-06  0.37395354E-06  0.37532161E-06  0.37314132E-06  0.36747562E-06
  0.35841948E-06  0.34609850E-06  0.33066747E-06  0.31230849E-06  0.29122899E-06
  0.26765947E-06  0.24185105E-06  0.21407290E-06  0.18460946E-06  0.15375765E-06
  0.12182389E-06  0.89121130E-07  0.55965854E-07  0.22675051E-07 -0.10436755E-07
 -0.43060423E-07 -0.74895033E-07 -0.10565061E-06 -0.13505072E-06 -0.16283489E-06
 -0.18876086E-06 -0.21260669E-06 -0.23417253E-06 -0.25328228E-06 -0.26978497E-06
 -0.28355586E-06 -0.29449731E-06 -0.30253938E-06 -0.30764018E-06 -0.30978593E-06
 -0.30899073E-06 -0.30529615E-06 -0.29877051E-06 -0.28950792E-06 -0.27762709E-06
 -0.26326996E-06 -0.24660009E-06 -0.22780085E-06 -0.20707353E-06 -0.18463518E-06
 -0.16071643E-06 -0.13555919E-06 -0.10941419E-06 -0.82538583E-07 -0.55193443E-07
 -0.27641259E-07 -0.14346725E-09  0.27041992E-07  0.53663052E-07  0.79475821E-07
  0.10424677E-06  0.12775482E-06  0.14979327E-06  0.17017154E-06  0.18871683E-06
  0.20527552E-06  0.21971437E-06  0.23192156E-06  0.24180751E-06  0.24930544E-06
  0.25437177E-06  0.25698623E-06  0.25715183E-06  0.25489455E-06  0.25026281E-06
  0.24332683E-06  0.23417766E-06  0.22292613E-06  0.20970159E-06  0.19465046E-06
  0.17793469E-06  0.15973007E-06  0.14022440E-06  0.11961562E-06  0.98109839E-07
  0.75919279E-07  0.53260253E-07  0.30351070E-07  0.74099673E-08 -0.15346935E-07
 -0.37707641E-07 -0.59466223E-07 -0.80424685E-07 -0.10039473E-06 -0.11919944E-06
 -0.13667478E-06 -0.15267102E-06 -0.16705396E-06 -0.17970606E-06 -0.19052732E-06
 -0.19943603E-06 -0.20636936E-06 -0.21128372E-06 -0.21415499E-06 -0.21497847E-06
 -0.21376879E-06 -0.21055952E-06 -0.20540263E-06 -0.19836785E-06 -0.18954179E-06
 -0.17902693E-06 -0.16694054E-06 -0.15341337E-06 -0.13858827E-06 -0.12261877E-06
 -0.10566748E-06 -0.87904455E-07 -0.69505573E-07 -0.50650766E-07 -0.31522315E-07
 -0.12303105E-07  0.68250971E-08  0.25683337E-07  0.44097122E-07  0.61898013E-07
  0.78925140E-07  0.95026630E-07  0.11006094E-06  0.12389807E-06  0.13642066E-06
  0.14752498E-06  0.15712170E-06  0.16513665E-06  0.17151130E-06  0.17620315E-06
  0.17918600E-06  0.18044995E-06  0.18000139E-06  0.17786273E-06  0.17407201E-06
  0.16868243E-06  0.16176161E-06  0.15339088E-06  0.14366430E-06  0.13268772E-06
  0.12057759E-06  0.10745979E-06  0.93468350E-07  0.78744089E-07  0.63433236E-07
  0.47685992E-07  0.31655078E-07  0.15494279E-07 -0.64301822E-09 -0.16605253E-07
 -0.32244103E-07 -0.47415837E-07 -0.61982619E-07 -0.75813743E-07 -0.88786779E-07
 -0.10078865E-06 -0.11171657E-06 -0.12147893E-06 -0.12999604E-06 -0.13720073E-06
 -0.14303886E-06 -0.14746970E-06 -0.15046619E-06 -0.15201500E-06 -0.15211657E-06
 -0.15078492E-06 -0.14804741E-06 -0.14394432E-06 -0.13852834E-06 -0.13186399E-06
 -0.12402681E-06 -0.11510262E-06 -0.10518655E-06 -0.94382095E-07 -0.82800007E-07
 -0.70557225E-07 -0.57775692E-07 -0.44581164E-07 -0.31101985E-07 -0.17467861E-07
 -0.38086248E-08  0.97469839E-08  0.23072516E-07  0.36044977E-07  0.48545948E-07
  0.60462647E-07  0.71688936E-07  0.82126247E-07  0.91684428E-07  0.10028251E-06
  0.10784937E-06  0.11432429E-06  0.11965744E-06  0.12381024E-06  0.12675556E-06
  0.12847792E-06  0.12897348E-06  0.12824996E-06  0.12632649E-06  0.12323325E-06
  0.11901112E-06  0.11371118E-06  0.10739413E-06  0.10012961E-06  0.91995457E-07
  0.83076919E-07  0.73465742E-07  0.63259267E-07  0.52559451E-07  0.41471869E-07
  0.30104679E-07  0.18567587E-07  0.69707980E-08 -0.45760223E-08 -0.15964774E-07
 -0.27089920E-07 -0.37849454E-07 -0.48145821E-07 -0.57886789E-07 -0.66986265E-07
 -0.75365039E-07 -0.82951462E-07 -0.89682040E-07 -0.95501954E-07 -0.10036549E-06
 -0.10423636E-06 -0.10708798E-06 -0.10890360E-06 -0.10967637E-06 -0.10940932E-06
 -0.10811521E-06 -0.10581632E-06 -0.10254416E-06 -0.98339082E-07 -0.93249803E-07
   16.2516435017787      T
 Non local Part
           0           2   1.24849157520940     
   15.2316426079676        16.1317527832832        16.1317527832832     
   17.0866998162060     
 Reciprocal Space Part
 -0.19448314E+03 -0.19306302E+03 -0.18882552E+03 -0.18183878E+03 -0.17221494E+03
 -0.16010802E+03 -0.14571105E+03 -0.12925250E+03 -0.11099195E+03 -0.91215360E+02
 -0.70229789E+02 -0.48357772E+02 -0.25931501E+02 -0.32868702E+01  0.19242470E+02
  0.41330926E+02  0.62666540E+02  0.82956212E+02  0.10193048E+03  0.11934777E+03
  0.13499799E+03  0.14870553E+03  0.16033145E+03  0.16977499E+03  0.17697426E+03
  0.18190620E+03  0.18458583E+03  0.18506466E+03  0.18342864E+03  0.17979531E+03
  0.17431059E+03  0.16714499E+03  0.15848962E+03  0.14855178E+03  0.13755049E+03
  0.12571198E+03  0.11326510E+03  0.10043700E+03  0.87448913E+02  0.74512299E+02
  0.61825332E+02  0.49569810E+02  0.37908550E+02  0.26983285E+02  0.16913096E+02
  0.77933920E+01 -0.30457407E+00 -0.73336585E+01 -0.13270279E+02 -0.18113399E+02
 -0.21883095E+02 -0.24618752E+02 -0.26376949E+02 -0.27229098E+02 -0.27258905E+02
 -0.26559718E+02 -0.25231817E+02 -0.23379741E+02 -0.21109672E+02 -0.18526968E+02
 -0.15733874E+02 -0.12827457E+02 -0.98978086E+01 -0.70265312E+01 -0.42855321E+01
 -0.17361358E+01  0.57148698E+00  0.25985778E+01  0.43177515E+01  0.57126790E+01
  0.67775197E+01  0.75161332E+01  0.79411059E+01  0.80726297E+01  0.79372721E+01
  0.75666768E+01  0.69962337E+01  0.62637555E+01  0.54081960E+01  0.44684399E+01
  0.34821939E+01  0.24849996E+01  0.15093881E+01  0.58418810E+00 -0.26600337E+00
 -0.10211861E+01 -0.16661581E+01 -0.21905604E+01 -0.25887758E+01 -0.28596939E+01
 -0.30063612E+01 -0.30355334E+01 -0.29571509E+01 -0.27837589E+01 -0.25298933E+01
 -0.22114535E+01 -0.18450823E+01 -0.14475706E+01 -0.10353036E+01 -0.62376373E+00
 Real Space Part
  0.49575243E+03  0.49553442E+03  0.49488052E+03  0.49379108E+03  0.49226671E+03
  0.49030829E+03  0.48791691E+03  0.48509395E+03  0.48184105E+03  0.47816011E+03
  0.47405333E+03  0.46952320E+03  0.46457251E+03  0.45920439E+03  0.45342228E+03
  0.44723001E+03  0.44063174E+03  0.43363205E+03  0.42623594E+03  0.41844883E+03
  0.41027661E+03  0.40172566E+03  0.39280289E+03  0.38351573E+03  0.37387223E+03
  0.36388102E+03  0.35355141E+03  0.34289339E+03  0.33191767E+03  0.32063573E+03
  0.30905987E+03  0.29720324E+03  0.28507989E+03  0.27270480E+03  0.26009396E+03
  0.24726437E+03  0.23423413E+03  0.22102247E+03  0.20764976E+03  0.19413760E+03
  0.18050884E+03  0.16678761E+03  0.15299935E+03  0.13917085E+03  0.12533023E+03
  0.11150702E+03  0.97732074E+02  0.84037629E+02  0.70457241E+02  0.57025760E+02
  0.43779271E+02  0.30755015E+02  0.17991295E+02  0.55273544E+01 -0.65967707E+01
 -0.18340425E+02 -0.29662540E+02 -0.40521871E+02 -0.50877264E+02 -0.60687965E+02
 -0.69913958E+02 -0.78516339E+02 -0.86457728E+02 -0.93702711E+02 -0.10021831E+03
 -0.10597450E+03 -0.11094471E+03 -0.11510634E+03 -0.11844137E+03 -0.12093684E+03
 -0.12258540E+03 -0.12338582E+03 -0.12334342E+03 -0.12247055E+03 -0.12078686E+03
 -0.11831962E+03 -0.11510388E+03 -0.11118249E+03 -0.10660614E+03 -0.10143306E+03
 -0.95728783E+02 -0.89565660E+02 -0.83022247E+02 -0.76182612E+02 -0.69135432E+02
 -0.61973077E+02 -0.54790491E+02 -0.47684104E+02 -0.40750594E+02 -0.34085696E+02
 -0.27782961E+02 -0.21932566E+02 -0.16620156E+02 -0.11925784E+02 -0.79228945E+01
 -0.46776202E+01 -0.22479149E+01 -0.67867639E+00 -0.35209258E-01  0.00000000E+00
 Reciprocal Space Part
  0.19033360E+03  0.18897596E+03  0.18492482E+03  0.17824510E+03  0.16904363E+03
  0.15746717E+03  0.14369966E+03  0.12795878E+03  0.11049190E+03  0.91571543E+02
  0.71490348E+02  0.50555752E+02  0.29084428E+02  0.73966249E+01 -0.14189493E+02
 -0.35363381E+02 -0.55827423E+02 -0.75301906E+02 -0.93529577E+02 -0.11027968E+03
 -0.12535139E+03 -0.13857669E+03 -0.14982243E+03 -0.15899177E+03 -0.16602490E+03
 -0.17089893E+03 -0.17362724E+03 -0.17425798E+03 -0.17287206E+03 -0.16958055E+03
 -0.16452152E+03 -0.15785657E+03 -0.14976689E+03 -0.14044921E+03 -0.13011146E+03
 -0.11896852E+03 -0.10723786E+03 -0.95135402E+02 -0.82871541E+02 -0.70647457E+02
 -0.58651770E+02 -0.47057608E+02 -0.36020116E+02 -0.25674448E+02 -0.16134280E+02
 -0.74908195E+01  0.18765547E+00  0.68557609E+01  0.12490495E+02  0.17090283E+02
  0.20673618E+02  0.23277358E+02  0.24954719E+02  0.25773043E+02  0.25811383E+02
  0.25157991E+02  0.23907748E+02  0.22159621E+02  0.20014184E+02  0.17571274E+02
  0.14927813E+02  0.12175848E+02  0.94008408E+01  0.66802276E+01  0.40822710E+01
  0.16652132E+01 -0.52326995E+00 -0.24463180E+01 -0.40778529E+01 -0.54022816E+01
 -0.64139607E+01 -0.71164517E+01 -0.75215993E+01 -0.76484706E+01 -0.75221892E+01
 -0.71727040E+01 -0.66335281E+01 -0.59404841E+01 -0.51304874E+01 -0.42403991E+01
 -0.33059725E+01 -0.23609167E+01 -0.14360932E+01 -0.55885884E+00  0.24743794E+00
  0.96380406E+00  0.15757944E+01  0.20735556E+01  0.24517307E+01  0.27092378E+01
  0.28489387E+01  0.28772152E+01  0.28034723E+01  0.26395884E+01  0.23993333E+01
  0.20977739E+01  0.17506853E+01  0.13739867E+01  0.98321587E+00  0.59305726E+00
 Real Space Part
 -0.46558570E+03 -0.46538015E+03 -0.46476360E+03 -0.46373640E+03 -0.46229911E+03
 -0.46045256E+03 -0.45819778E+03 -0.45553606E+03 -0.45246895E+03 -0.44899824E+03
 -0.44512599E+03 -0.44085456E+03 -0.43618656E+03 -0.43112494E+03 -0.42567294E+03
 -0.41983417E+03 -0.41361254E+03 -0.40701239E+03 -0.40003839E+03 -0.39269567E+03
 -0.38498979E+03 -0.37692674E+03 -0.36851305E+03 -0.35975574E+03 -0.35066237E+03
 -0.34124111E+03 -0.33150073E+03 -0.32145065E+03 -0.31110100E+03 -0.30046259E+03
 -0.28954706E+03 -0.27836680E+03 -0.26693508E+03 -0.25526606E+03 -0.24337484E+03
 -0.23127749E+03 -0.21899109E+03 -0.20653381E+03 -0.19392491E+03 -0.18118480E+03
 -0.16833508E+03 -0.15539855E+03 -0.14239926E+03 -0.12936252E+03 -0.11631494E+03
 -0.10328442E+03 -0.90300134E+02 -0.77392564E+02 -0.64593437E+02 -0.51935704E+02
 -0.39453484E+02 -0.27181991E+02 -0.15157442E+02 -0.34169451E+01  0.80016460E+01
  0.19059891E+02  0.29718961E+02  0.39939860E+02  0.49683685E+02  0.58911910E+02
  0.67586711E+02  0.75671320E+02  0.83130415E+02  0.89930539E+02  0.96040547E+02
  0.10143208E+03  0.10608006E+03  0.10996319E+03  0.11306448E+03  0.11537175E+03
  0.11687814E+03  0.11758257E+03  0.11749019E+03  0.11661276E+03  0.11496901E+03
  0.11258483E+03  0.10949352E+03  0.10573574E+03  0.10135955E+03  0.96420206E+02
  0.90979815E+02  0.85106960E+02  0.78876087E+02  0.72366856E+02  0.65663280E+02
  0.58852859E+02  0.52025524E+02  0.45272597E+02  0.38685629E+02  0.32355262E+02
  0.26370064E+02  0.20815392E+02  0.15772304E+02  0.11316550E+02  0.75176147E+01
  0.44380490E+01  0.21326504E+01  0.64383865E+00  0.33398857E-01  0.00000000E+00
 Non local Part
           1           2   1.24849157520940     
   5.37673202578012        7.11363050585147        7.11363050585147     
   9.41689408771595     
 Reciprocal Space Part
  0.00000000E+00  0.77125257E+01  0.15235824E+02  0.22384641E+02  0.28981581E+02
  0.34860821E+02  0.39871569E+02  0.43881191E+02  0.46777944E+02  0.48473250E+02
  0.48903465E+02  0.48031114E+02  0.45845552E+02  0.42363058E+02  0.37626352E+02
  0.31703552E+02  0.24686608E+02  0.16689240E+02  0.78444328E+01 -0.16984442E+01
 -0.11776834E+02 -0.22218430E+02 -0.32844770E+02 -0.43474916E+02 -0.53929130E+02
 -0.64032469E+02 -0.73618216E+02 -0.82531087E+02 -0.90630133E+02 -0.97791292E+02
 -0.10390953E+03 -0.10890054E+03 -0.11270197E+03 -0.11527418E+03 -0.11660045E+03
 -0.11668680E+03 -0.11556120E+03 -0.11327249E+03 -0.10988878E+03 -0.10549556E+03
 -0.10019343E+03 -0.94095681E+02 -0.87325576E+02 -0.80013604E+02 -0.72294621E+02
 -0.64305017E+02 -0.56179950E+02 -0.48050718E+02 -0.40042303E+02 -0.32271158E+02
 -0.24843264E+02 -0.17852493E+02 -0.11379304E+02 -0.54897857E+01 -0.23505879E+00
  0.43489727E+01  0.82415223E+01  0.11436496E+02  0.13941766E+02  0.15778166E+02
  0.16978261E+02  0.17584914E+02  0.17649699E+02  0.17231212E+02  0.16393315E+02
  0.15203363E+02  0.13730456E+02  0.12043762E+02  0.10210936E+02  0.82966758E+01
  0.63614467E+01  0.44603842E+01  0.26424011E+01  0.94950659E+00 -0.58365998E+00
 -0.19300798E+01 -0.30703977E+01 -0.39927693E+01 -0.46925279E+01 -0.51716918E+01
 -0.54383346E+01 -0.55058440E+01 -0.53920956E+01 -0.51185699E+01 -0.47094394E+01
 -0.41906515E+01 -0.35890347E+01 -0.29314481E+01 -0.22439966E+01 -0.15513289E+01
 -0.87603034E+00 -0.23812350E+00  0.34531833E+00  0.86044139E+00  0.12967656E+01
  0.16472268E+01  0.19081126E+01  0.20789033E+01  0.21620274E+01  0.21625451E+01
 Real Space Part
  0.00000000E+00 -0.12861513E+02 -0.25689240E+02 -0.38449463E+02 -0.51108604E+02
 -0.63633293E+02 -0.75990435E+02 -0.88147285E+02 -0.10007151E+03 -0.11173127E+03
 -0.12309527E+03 -0.13413283E+03 -0.14481400E+03 -0.15510955E+03 -0.16499111E+03
 -0.17443119E+03 -0.18340329E+03 -0.19188193E+03 -0.19984277E+03 -0.20726261E+03
 -0.21411954E+03 -0.22039295E+03 -0.22606362E+03 -0.23111380E+03 -0.23552727E+03
 -0.23928942E+03 -0.24238731E+03 -0.24480977E+03 -0.24654744E+03 -0.24759284E+03
 -0.24794050E+03 -0.24758694E+03 -0.24653085E+03 -0.24477307E+03 -0.24231672E+03
 -0.23916724E+03 -0.23533247E+03 -0.23082274E+03 -0.22565090E+03 -0.21983239E+03
 -0.21338532E+03 -0.20633050E+03 -0.19869152E+03 -0.19049473E+03 -0.18176934E+03
 -0.17254742E+03 -0.16286386E+03 -0.15275646E+03 -0.14226583E+03 -0.13143538E+03
 -0.12031127E+03 -0.10894231E+03 -0.97379883E+02 -0.85677752E+02 -0.73891935E+02
 -0.62080480E+02 -0.50303226E+02 -0.38621511E+02 -0.27097845E+02 -0.15795537E+02
 -0.47782683E+01  0.58903771E+01  0.16147432E+02  0.25931114E+02  0.35181435E+02
  0.43840858E+02  0.51854984E+02  0.59173271E+02  0.65749772E+02  0.71543888E+02
  0.76521105E+02  0.80653735E+02  0.83921599E+02  0.86312676E+02  0.87823673E+02
  0.88460528E+02  0.88238771E+02  0.87183776E+02  0.85330908E+02  0.82725434E+02
  0.79422345E+02  0.75485975E+02  0.70989402E+02  0.66013769E+02  0.60647311E+02
  0.54984365E+02  0.49124092E+02  0.43169231E+02  0.37224633E+02  0.31395825E+02
  0.25787499E+02  0.20502018E+02  0.15637958E+02  0.11288727E+02  0.75412455E+01
  0.44748905E+01  0.21603868E+01  0.65591183E+00  0.27506239E-01  0.00000000E+00
 Reciprocal Space Part
  0.00000000E+00 -0.54618664E+01 -0.10784874E+02 -0.15833101E+02 -0.20476440E+02
 -0.24593336E+02 -0.28073350E+02 -0.30819464E+02 -0.32750104E+02 -0.33800812E+02
 -0.33925555E+02 -0.33097625E+02 -0.31310127E+02 -0.28576037E+02 -0.24927835E+02
 -0.20416725E+02 -0.15111467E+02 -0.90968376E+01 -0.24717698E+01  0.46527889E+01
  0.12156252E+02  0.19910943E+02  0.27784767E+02  0.35643935E+02  0.43355689E+02
  0.50790964E+02  0.57826929E+02  0.64349354E+02  0.70254759E+02  0.75452291E+02
  0.79865301E+02  0.83432594E+02  0.86109323E+02  0.87867527E+02  0.88696291E+02
  0.88601553E+02  0.87605564E+02  0.85746009E+02  0.83074837E+02  0.79656823E+02
  0.75567898E+02  0.70893301E+02  0.65725586E+02  0.60162551E+02  0.54305111E+02
  0.48255195E+02  0.42113683E+02  0.35978455E+02  0.29942568E+02  0.24092613E+02
  0.18507280E+02  0.13256144E+02  0.83987076E+01  0.39836995E+01  0.48638920E-01
 -0.33803356E+01 -0.62883812E+01 -0.86716216E+01 -0.10536593E+02 -0.11899489E+02
 -0.12785228E+02 -0.13226379E+02 -0.13261973E+02 -0.12936231E+02 -0.12297256E+02
 -0.11395704E+02 -0.10283477E+02 -0.90124746E+01 -0.76334091E+01 -0.61947358E+01
 -0.47416990E+01 -0.33155180E+01 -0.19527249E+01 -0.68466010E+00  0.46287036E+00
  0.14697771E+01  0.23217145E+01  0.30099610E+01  0.35311659E+01  0.38869765E+01
  0.40835636E+01  0.41310641E+01  0.40429607E+01  0.38354195E+01  0.35266055E+01
  0.31359964E+01  0.26837136E+01  0.21898861E+01  0.16740644E+01  0.11546957E+01
  0.64867173E+00  0.17095643E+00 -0.26570177E+00 -0.65097016E+00 -0.97704538E+00
 -0.12386831E+01 -0.14331486E+01 -0.15600961E+01 -0.16213842E+01 -0.16208385E+01
 Real Space Part
  0.00000000E+00  0.97794257E+01  0.19533291E+02  0.29236086E+02  0.38862408E+02
  0.48387010E+02  0.57784855E+02  0.67031168E+02  0.76101488E+02  0.84971719E+02
  0.93618187E+02  0.10201769E+03  0.11014754E+03  0.11798563E+03  0.12551050E+03
  0.13270133E+03  0.13953808E+03  0.14600145E+03  0.15207301E+03  0.15773522E+03
  0.16297147E+03  0.16776615E+03  0.17210470E+03  0.17597368E+03  0.17936079E+03
  0.18225495E+03  0.18464634E+03  0.18652647E+03  0.18788823E+03  0.18872591E+03
  0.18903533E+03  0.18881382E+03  0.18806031E+03  0.18677540E+03  0.18496137E+03
  0.18262228E+03  0.17976397E+03  0.17639418E+03  0.17252255E+03  0.16816065E+03
  0.16332210E+03  0.15802252E+03  0.15227964E+03  0.14611329E+03  0.13954543E+03
  0.13260018E+03  0.12530381E+03  0.11768475E+03  0.10977358E+03  0.10160298E+03
  0.93207708E+02  0.84624522E+02  0.75892109E+02  0.67050980E+02  0.58143334E+02
  0.49212911E+02  0.40304808E+02  0.31465256E+02  0.22741383E+02  0.14180927E+02
  0.58319175E+01 -0.22576753E+01 -0.10040333E+02 -0.17469415E+02 -0.24499616E+02
 -0.31087461E+02 -0.37191820E+02 -0.42774449E+02 -0.47800549E+02 -0.52239327E+02
 -0.56064554E+02 -0.59255122E+02 -0.61795562E+02 -0.63676527E+02 -0.64895229E+02
 -0.65455815E+02 -0.65369642E+02 -0.64655470E+02 -0.63339570E+02 -0.61455670E+02
 -0.59044813E+02 -0.56155081E+02 -0.52841144E+02 -0.49163756E+02 -0.45189021E+02
 -0.40987657E+02 -0.36634034E+02 -0.32205240E+02 -0.27779981E+02 -0.23437505E+02
 -0.19256463E+02 -0.15313786E+02 -0.11683594E+02 -0.84361512E+01 -0.56368788E+01
 -0.33455546E+01 -0.16154805E+01 -0.49056451E+00 -0.20564733E-01  0.00000000E+00
 Non local Part
           2           1   1.24849157520940     
   9.89393210132561     
 Reciprocal Space Part
  0.00000000E+00  0.20982336E-01  0.83557203E-01  0.18661534E+00  0.32833165E+00
  0.50620026E+00  0.71708246E+00  0.95726665E+00  0.12225390E+01  0.15082632E+01
  0.18094679E+01  0.21209401E+01  0.24373217E+01  0.27532082E+01  0.30632479E+01
  0.33622375E+01  0.36452151E+01  0.39075460E+01  0.41450021E+01  0.43538311E+01
  0.45308166E+01  0.46733257E+01  0.47793453E+01  0.48475054E+01  0.48770896E+01
  0.48680329E+01  0.48209072E+01  0.47368942E+01  0.46177480E+01  0.44657477E+01
  0.42836402E+01  0.40745767E+01  0.38420431E+01  0.35897852E+01  0.33217329E+01
  0.30419216E+01  0.27544156E+01  0.24632331E+01  0.21722752E+01  0.18852596E+01
  0.16056608E+01  0.13366576E+01  0.10810887E+01  0.84141645E+00  0.61970066E+00
  0.41758097E+00  0.23626879E+00  0.76548214E-01 -0.61214411E-01 -0.17705292E+00
 -0.27137648E+00 -0.34493835E+00 -0.39879929E+00 -0.43428657E+00 -0.45294982E+00
 -0.45651483E+00 -0.44683636E+00 -0.42585118E+00 -0.39553227E+00 -0.35784524E+00
 -0.31470773E+00 -0.26795270E+00 -0.21929600E+00 -0.17030890E+00 -0.12239585E+00
 -0.76777598E-01 -0.34479864E-01  0.36726743E-02  0.37057177E-01  0.65248587E-01
  0.88011157E-01  0.10528605E+00  0.11717558E+00  0.12392480E+00  0.12590092E+00
  0.12357144E+00  0.11748148E+00  0.10823105E+00  0.96452764E-01  0.82790683E-01
  0.67880618E-01  0.52332396E-01  0.36714394E-01  0.21540587E-01  0.72602649E-02
 -0.57494894E-02 -0.17188576E-01 -0.26835984E-01 -0.34549372E-01 -0.40262346E-01
 -0.43979676E-01 -0.45770761E-01 -0.45761684E-01 -0.44126174E-01 -0.41075864E-01
 -0.36850163E-01 -0.31706107E-01 -0.25908473E-01 -0.19720469E-01 -0.13395214E-01
 Real Space Part
  0.00000000E+00  0.31083501E-02  0.12427053E-01  0.27937073E-01  0.49606690E-01
  0.77391523E-01  0.11123455E+00  0.15106614E+00  0.19680409E+00  0.24835365E+00
  0.30560760E+00  0.36844627E+00  0.43673764E+00  0.51033734E+00  0.58908878E+00
  0.67282317E+00  0.76135963E+00  0.85450523E+00  0.95205510E+00  0.10537925E+01
  0.11594889E+01  0.12689040E+01  0.13817861E+01  0.14978717E+01  0.16168861E+01
  0.17385433E+01  0.18625458E+01  0.19885853E+01  0.21163425E+01  0.22454872E+01
  0.23756785E+01  0.25065652E+01  0.26377855E+01  0.27689678E+01  0.28997306E+01
  0.30296826E+01  0.31584236E+01  0.32855445E+01  0.34106278E+01  0.35332480E+01
  0.36529727E+01  0.37693625E+01  0.38819725E+01  0.39903527E+01  0.40940494E+01
  0.41926062E+01  0.42855655E+01  0.43724695E+01  0.44528627E+01  0.45262933E+01
  0.45923154E+01  0.46504916E+01  0.47003952E+01  0.47416137E+01  0.47737515E+01
  0.47964337E+01  0.48093093E+01  0.48120559E+01  0.48043833E+01  0.47860387E+01
  0.47568107E+01  0.47165347E+01  0.46650976E+01  0.46024432E+01  0.45285769E+01
  0.44435710E+01  0.43475690E+01  0.42407908E+01  0.41235358E+01  0.39961871E+01
  0.38592137E+01  0.37131726E+01  0.35587097E+01  0.33965593E+01  0.32275429E+01
  0.30525660E+01  0.28726139E+01  0.26887455E+01  0.25020868E+01  0.23138208E+01
  0.21251780E+01  0.19374247E+01  0.17518496E+01  0.15697506E+01  0.13924200E+01
  0.12211297E+01  0.10571159E+01  0.90156447E+00  0.75559631E+00  0.62025400E+00
  0.49648929E+00  0.38515225E+00  0.28698153E+00  0.20259737E+00  0.13249519E+00
  0.77044419E-01  0.36485064E-01  0.10863376E-01  0.53869122E-03  0.00000000E+00
 PAW radial sets
         361   1.18754214512852     
(5E20.12)                                
 augmentation charges (non sperical)
 -0.531401570514E+00 -0.560001834548E+00 -0.248458260529E+00 -0.333193629397E+00 -0.112874379192E+00
 -0.560001834548E+00 -0.590167280698E+00 -0.262316535502E+00 -0.351744112043E+00 -0.119319155175E+00
 -0.248458260529E+00 -0.262316535502E+00 -0.122030524661E+00 -0.163179535730E+00 -0.487829958758E-01
 -0.333193629397E+00 -0.351744112043E+00 -0.163179535730E+00 -0.218242843890E+00 -0.655805854152E-01
 -0.112874379192E+00 -0.119319155175E+00 -0.487829958758E-01 -0.655805854152E-01  0.325318219468E-01
 uccopancies in atom
  0.200000000328E+01  0.000000000000E+00  0.000000000000E+00  0.000000000000E+00  0.000000000000E+00
  0.000000000000E+00  0.000000000000E+00  0.000000000000E+00  0.000000000000E+00  0.000000000000E+00
  0.000000000000E+00  0.000000000000E+00  0.166666667016E+01  0.000000000000E+00  0.000000000000E+00
  0.000000000000E+00  0.000000000000E+00  0.000000000000E+00  0.000000000000E+00  0.000000000000E+00
  0.000000000000E+00  0.000000000000E+00  0.000000000000E+00  0.000000000000E+00  0.000000000000E+00
 grid
  0.584046964284E-04  0.603038714544E-04  0.622648029143E-04  0.642894989734E-04  0.663800330973E-04
  0.685385461757E-04  0.707672487146E-04  0.730684231001E-04  0.754444259359E-04  0.778976904565E-04
  0.804307290192E-04  0.830461356768E-04  0.857465888342E-04  0.885348539915E-04  0.914137865759E-04
  0.943863348658E-04  0.974555430105E-04  0.100624554147E-03  0.103896613621E-03  0.107275072305E-03
  0.110763390038E-03  0.114365139161E-03  0.118084008181E-03  0.121923805543E-03  0.125888463537E-03
  0.129982042318E-03  0.134208734068E-03  0.138572867290E-03  0.143078911238E-03  0.147731480493E-03
  0.152535339693E-03  0.157495408411E-03  0.162616766190E-03  0.167904657747E-03  0.173364498346E-03
  0.179001879341E-03  0.184822573902E-03  0.190832542929E-03  0.197037941156E-03  0.203445123453E-03
  0.210060651334E-03  0.216891299678E-03  0.223944063666E-03  0.231226165945E-03  0.238745064022E-03
  0.246508457908E-03  0.254524297996E-03  0.262800793207E-03  0.271346419394E-03  0.280169928026E-03
  0.289280355147E-03  0.298687030630E-03  0.308399587733E-03  0.318427972963E-03  0.328782456263E-03
  0.339473641529E-03  0.350512477469E-03  0.361910268814E-03  0.373678687900E-03  0.385829786617E-03
  0.398376008750E-03  0.411330202728E-03  0.424705634777E-03  0.438516002509E-03  0.452775448947E-03
  0.467498577010E-03  0.482700464468E-03  0.498396679382E-03  0.514603296048E-03  0.531336911458E-03
  0.548614662295E-03  0.566454242486E-03  0.584873921321E-03  0.603892562161E-03  0.623529641755E-03
  0.643805270188E-03  0.664740211477E-03  0.686355904830E-03  0.708674486607E-03  0.731718812985E-03
  0.755512483368E-03  0.780079864554E-03  0.805446115688E-03  0.831637214028E-03  0.858679981547E-03
  0.886602112402E-03  0.915432201296E-03  0.945199772758E-03  0.975935311383E-03  0.100767029305E-02
  0.104043721715E-02  0.107426963988E-02  0.110920220859E-02  0.114527069729E-02  0.118251204327E-02
  0.122096438491E-02  0.126066710077E-02  0.130166084991E-02  0.134398761350E-02  0.138769073785E-02
  0.143281497878E-02  0.147940654746E-02  0.152751315771E-02  0.157718407492E-02  0.162847016645E-02
  0.168142395372E-02  0.173609966606E-02  0.179255329616E-02  0.185084265748E-02  0.191102744341E-02
  0.197316928844E-02  0.203733183124E-02  0.210358077987E-02  0.217198397904E-02  0.224261147960E-02
  0.231553561029E-02  0.239083105178E-02  0.246857491319E-02  0.254884681103E-02  0.263172895073E-02
  0.271730621084E-02  0.280566622997E-02  0.289689949649E-02  0.299109944123E-02  0.308836253318E-02
  0.318878837824E-02  0.329247982125E-02  0.339954305130E-02  0.351008771051E-02  0.362422700625E-02
  0.374207782716E-02  0.386376086275E-02  0.398940072710E-02  0.411912608641E-02  0.425306979078E-02
  0.439136901026E-02  0.453416537535E-02  0.468160512200E-02  0.483383924139E-02  0.499102363457E-02
  0.515331927208E-02  0.532089235885E-02  0.549391450436E-02  0.567256289840E-02  0.585702049254E-02
  0.604747618748E-02  0.624412502649E-02  0.644716839516E-02  0.665681422766E-02  0.687327721962E-02
  0.709677904807E-02  0.732754859842E-02  0.756582219884E-02  0.781184386233E-02  0.806586553656E-02
  0.832814736194E-02  0.859895793796E-02  0.887857459833E-02  0.916728369493E-02  0.946538089112E-02
  0.977317146446E-02  0.100909706194E-01  0.104191038101E-01  0.107579070735E-01  0.111077273738E-01
  0.114689229576E-01  0.118418637207E-01  0.122269315871E-01  0.126245208998E-01  0.130350388252E-01
  0.134589057693E-01  0.138965558091E-01  0.143484371363E-01  0.148150125170E-01  0.152967597651E-01
  0.157941722320E-01  0.163077593113E-01  0.168380469612E-01  0.173855782426E-01  0.179509138753E-01
  0.185346328125E-01  0.191373328333E-01  0.197596311553E-01  0.204021650662E-01  0.210655925769E-01
  0.217505930953E-01  0.224578681217E-01  0.231881419675E-01  0.239421624969E-01  0.247207018929E-01
  0.255245574479E-01  0.263545523801E-01  0.272115366769E-01  0.280963879652E-01  0.290100124099E-01
  0.299533456423E-01  0.309273537182E-01  0.319330341068E-01  0.329714167128E-01  0.340435649306E-01
  0.351505767339E-01  0.362935857993E-01  0.374737626681E-01  0.386923159444E-01  0.399504935334E-01
  0.412495839188E-01  0.425909174827E-01  0.439758678679E-01  0.454058533846E-01  0.468823384629E-01
  0.484068351526E-01  0.499809046715E-01  0.516061590043E-01  0.532842625535E-01  0.550169338438E-01
  0.568059472819E-01  0.586531349740E-01  0.605603886017E-01  0.625296613593E-01  0.645629699543E-01
  0.666623966723E-01  0.688300915098E-01  0.710682743756E-01  0.733792373646E-01  0.757653471049E-01
  0.782290471813E-01  0.807728606381E-01  0.833993925624E-01  0.861113327525E-01  0.889114584721E-01
  0.918026372946E-01  0.947878300399E-01  0.978700938061E-01  0.101052585101E+00  0.104338563073E+00
  0.107731392851E+00  0.111234548990E+00  0.114851619026E+00  0.118586307157E+00  0.122442438030E+00
  0.126423960658E+00  0.130534952469E+00  0.134779623479E+00  0.139162320600E+00  0.143687532098E+00
  0.148359892186E+00  0.153184185767E+00  0.158165353340E+00  0.163308496057E+00  0.168618880943E+00
  0.174101946299E+00  0.179763307261E+00  0.185608761559E+00  0.191644295448E+00  0.197876089842E+00
  0.204310526643E+00  0.210954195277E+00  0.217813899441E+00  0.224896664071E+00  0.232209742538E+00
  0.239760624073E+00  0.247557041439E+00  0.255606978847E+00  0.263918680138E+00  0.272500657219E+00
  0.281361698786E+00  0.290510879319E+00  0.299957568378E+00  0.309711440199E+00  0.319782483599E+00
  0.330181012206E+00  0.340917675022E+00  0.352003467328E+00  0.363449741944E+00  0.375268220856E+00
  0.387471007219E+00  0.400070597752E+00  0.413079895536E+00  0.426512223231E+00  0.440381336713E+00
  0.454701439165E+00  0.469487195626E+00  0.484753748000E+00  0.500516730572E+00  0.516792286014E+00
  0.533597081916E+00  0.550948327858E+00  0.568863793032E+00  0.587361824440E+00  0.606461365682E+00
  0.626181976358E+00  0.646543852096E+00  0.667567845237E+00  0.689275486186E+00  0.711689005465E+00
  0.734831356475E+00  0.758726239008E+00  0.783398123510E+00  0.808872276147E+00  0.835174784678E+00
  0.862332585169E+00  0.890373489583E+00  0.919326214254E+00  0.949220409303E+00  0.980086688998E+00
  0.101195666311E+01  0.104486296927E+01  0.107883930641E+01  0.111392046928E+01  0.115014238405E+01
  0.118754214513E+01  0.122615805313E+01  0.126602965413E+01  0.130719778013E+01  0.134970459088E+01
  0.139359361707E+01  0.143890980491E+01  0.148569956212E+01  0.153401080551E+01  0.158389301002E+01
  0.163539725938E+01  0.168857629843E+01  0.174348458718E+01  0.180017835649E+01  0.185871566575E+01
  0.191915646227E+01  0.198156264271E+01  0.204599811646E+01  0.211252887106E+01  0.218122303984E+01
  0.225215097161E+01  0.232538530277E+01  0.240100103169E+01  0.247907559548E+01  0.255968894930E+01
  0.264292364829E+01  0.272886493205E+01  0.281760081195E+01  0.290922216130E+01  0.300382280837E+01
  0.310149963247E+01  0.320235266323E+01  0.330648518294E+01  0.341400383242E+01  0.352501872015E+01
  0.363964353508E+01  0.375799566305E+01  0.388019630696E+01  0.400637061095E+01  0.413664778855E+01
  0.427116125496E+01  0.441004876372E+01  0.455345254779E+01  0.470151946517E+01  0.485440114932E+01
  0.501225416445E+01  0.517524016583E+01  0.534352606538E+01  0.551728420256E+01  0.569669252089E+01
  0.588193475016E+01
 aepotential
  0.959407590933E+04  0.971771875466E+04  0.983298354248E+04  0.993906952772E+04  0.100352046036E+05
  0.101206516450E+05  0.101947184350E+05  0.102567666979E+05  0.103062213401E+05  0.103425788533E+05
  0.103654152905E+05  0.103743932797E+05  0.103692680806E+05  0.103498922822E+05  0.103162193706E+05
  0.102683057506E+05  0.102063110791E+05  0.101304974331E+05  0.100412265845E+05  0.993895549996E+04
  0.982423201439E+04  0.969768525933E+04  0.956002122455E+04  0.941201002903E+04  0.925447861870E+04
  0.908829868270E+04  0.891437662253E+04  0.873364231303E+04  0.854703780498E+04  0.835550743548E+04
  0.815998701717E+04  0.796139490776E+04  0.776062287041E+04  0.755852881090E+04  0.735592959372E+04
  0.715359577715E+04  0.695224672732E+04  0.675254722093E+04  0.655510501529E+04  0.636046930106E+04
  0.616913023603E+04  0.598151924511E+04  0.579801008896E+04  0.561892061105E+04  0.544451502124E+04
  0.527500664527E+04  0.511056102062E+04  0.495129925613E+04  0.479730156517E+04  0.464861088943E+04
  0.450523654730E+04  0.436715784273E+04  0.423432758424E+04  0.410667547118E+04  0.398411131375E+04
  0.386652806160E+04  0.375380462297E+04  0.364580846337E+04  0.354239797848E+04  0.344342464121E+04
  0.334873492554E+04  0.325817201726E+04  0.317157731405E+04  0.308879173900E+04  0.300965686870E+04
  0.293401588948E+04  0.286171441171E+04  0.279260113452E+04  0.272652839093E+04  0.266335258143E+04
  0.260293450147E+04  0.254513959888E+04  0.248983813299E+04  0.243690528797E+04  0.238622121965E+04
  0.233767106127E+04  0.229114488226E+04  0.224653762478E+04  0.220374900042E+04  0.216268337959E+04
  0.212324965284E+04  0.208536108537E+04  0.204893516373E+04  0.201389342717E+04  0.198016130785E+04
  0.194766796156E+04  0.191634609618E+04  0.188613181331E+04  0.185696443641E+04  0.182878635756E+04
  0.180154287857E+04  0.177518206363E+04  0.174965458948E+04  0.172491361124E+04  0.170091462496E+04
  0.167761534193E+04  0.165497556520E+04  0.163295707532E+04  0.161152351842E+04  0.159064030326E+04
  0.157027450113E+04  0.155039475284E+04  0.153097118094E+04  0.151197530442E+04  0.149337996344E+04
  0.147515924201E+04  0.145728840123E+04  0.143974381222E+04  0.142250289736E+04  0.140554406923E+04
  0.138884668141E+04  0.137239097595E+04  0.135615803531E+04  0.134012974278E+04  0.132428873812E+04
  0.130861838255E+04  0.129310272191E+04  0.127772645664E+04  0.126247491029E+04  0.124733400359E+04
  0.123229022881E+04  0.121733062751E+04  0.120244277046E+04  0.118761473871E+04  0.117283510800E+04
  0.115809293407E+04  0.114337774061E+04  0.112867950881E+04  0.111398866909E+04  0.109929609427E+04
  0.108459309510E+04  0.106987141725E+04  0.105512324050E+04  0.104034117974E+04  0.102551828779E+04
  0.101064806043E+04  0.995724443412E+03  0.980741841586E+03  0.965695130347E+03  0.950579669395E+03
  0.935391318956E+03  0.920126458800E+03  0.904782009782E+03  0.889355458731E+03  0.873844886144E+03
  0.858248997589E+03  0.842567158480E+03  0.826799432774E+03  0.810946625496E+03  0.795010329500E+03
  0.778992976159E+03  0.762897890245E+03  0.746729348505E+03  0.730492641574E+03  0.714194138381E+03
  0.697841351724E+03  0.681443003453E+03  0.665009086448E+03  0.648550920418E+03  0.632081197017E+03
  0.615614008941E+03  0.599164856528E+03  0.582750624094E+03  0.566389517638E+03  0.550100955103E+03
  0.533905401145E+03  0.517824140870E+03  0.501878991686E+03  0.486091960866E+03  0.470484869280E+03
  0.455078980191E+03  0.439894696305E+03  0.424951417712E+03  0.410267684064E+03  0.395861749228E+03
  0.381752742007E+03  0.367962532429E+03  0.354518325044E+03  0.341455815594E+03  0.328822471002E+03
  0.316680159361E+03  0.305106062449E+03  0.294190714215E+03  0.284032278456E+03  0.274726967000E+03
  0.266356602250E+03  0.258975480254E+03  0.252599311727E+03  0.247198748110E+03  0.242698876584E+03
  0.238984585294E+03  0.235910504356E+03  0.233313657392E+03  0.231026870897E+03  0.228891074953E+03
  0.226764845537E+03  0.224530111828E+03  0.222093918519E+03  0.219387101667E+03  0.216361215887E+03
  0.212984914180E+03  0.209240515926E+03  0.205121056018E+03  0.200627860579E+03  0.195768614902E+03
  0.190555883481E+03  0.185006045516E+03  0.179138601611E+03  0.172975794174E+03  0.166542472284E+03
  0.159866126341E+03  0.152977016146E+03  0.145908315971E+03  0.138696201575E+03  0.131379809512E+03
  0.124001015813E+03  0.116604022534E+03  0.109234819203E+03  0.101940711479E+03  0.947702677354E+02
  0.877741652209E+02  0.810073882957E+02  0.745328431577E+02  0.684255369445E+02  0.627751166149E+02
  0.576833930201E+02  0.532535835828E+02  0.495702486159E+02  0.466729697170E+02  0.445314984703E+02
  0.430341403030E+02  0.420014419870E+02  0.412270267209E+02  0.405274117283E+02  0.397724431482E+02
  0.388840157313E+02  0.378157021406E+02  0.365333424837E+02  0.350064560021E+02  0.332087210163E+02
  0.311215300146E+02  0.287362767538E+02  0.260541962380E+02  0.230845675433E+02  0.198425231531E+02
  0.163472986065E+02  0.126212354580E+02  0.868951623733E+01  0.458047678112E+01  0.326296851003E+00
 -0.403617115551E+01 -0.846477733283E+01 -0.129121671522E+02 -0.173272898685E+02 -0.216590399651E+02
 -0.258622429005E+02 -0.299046175277E+02 -0.337701983957E+02 -0.374504840240E+02 -0.409132330025E+02
 -0.440499847322E+02 -0.466356984295E+02 -0.483692348492E+02 -0.490447579291E+02 -0.487805247318E+02
 -0.480517916137E+02 -0.473711156773E+02 -0.469641403831E+02 -0.468001539219E+02 -0.467853879486E+02
 -0.468662928730E+02 -0.470379728910E+02 -0.473212897713E+02 -0.477403542837E+02 -0.483097130710E+02
 -0.490312199107E+02 -0.498965775141E+02 -0.508914221034E+02 -0.519986524202E+02 -0.532004065481E+02
 -0.544789290419E+02 -0.558167626659E+02 -0.571966217292E+02 -0.586011758454E+02 -0.600128830078E+02
 -0.614139495515E+02 -0.627864720111E+02 -0.641127638956E+02 -0.653758429658E+02 -0.665599561746E+02
 -0.676509772504E+02 -0.686364117306E+02 -0.695048587507E+02 -0.702449869515E+02 -0.708445708673E+02
 -0.712905960636E+02 -0.715714143989E+02 -0.716808359016E+02 -0.716221996264E+02 -0.714095169853E+02
 -0.710643167722E+02 -0.706098602863E+02 -0.700661310147E+02 -0.694476518286E+02 -0.687639486738E+02
 -0.680211837943E+02 -0.672237369938E+02 -0.663752530364E+02 -0.654791796212E+02 -0.645389982289E+02
 -0.635583074298E+02 -0.625408500271E+02 -0.614905194584E+02 -0.604113479413E+02 -0.593074812913E+02
 -0.581831152644E+02 -0.570424263243E+02 -0.558894659953E+02 -0.547280355385E+02 -0.535615502132E+02
 -0.523929040586E+02 -0.512243580891E+02 -0.500574830563E+02 -0.488931829035E+02 -0.477318128070E+02
 -0.465734033123E+02 -0.454179321561E+02 -0.442656236161E+02 -0.431172024737E+02 -0.419740643563E+02
 -0.408383379134E+02 -0.397128371428E+02 -0.386009183469E+02 -0.375062645933E+02 -0.364326234901E+02
 -0.353835254153E+02 -0.343620115907E+02 -0.333704039126E+02 -0.324101478582E+02 -0.314817522179E+02
 -0.305848338172E+02 -0.297182553319E+02 -0.288803265764E+02 -0.280690305525E+02 -0.272822373697E+02
 -0.265178794522E+02 -0.257740751751E+02 -0.250492004252E+02 -0.243419158607E+02 -0.236511614089E+02
 -0.229761297923E+02 -0.223162290728E+02 -0.216710416130E+02 -0.210402843132E+02 -0.204237728893E+02
 -0.198213914386E+02 -0.192330675446E+02 -0.186587525921E+02 -0.180984066753E+02 -0.175519873834E+02
 -0.170194417606E+02
 core charge-density
  0.197657463176E-01  0.209594445052E-01  0.222249474455E-01  0.235665477631E-01  0.249887921749E-01
  0.264964962917E-01  0.280947602592E-01  0.297889852851E-01  0.315848910984E-01  0.334885343918E-01
  0.355063283008E-01  0.376450629717E-01  0.399119272802E-01  0.423145317565E-01  0.448609327845E-01
  0.475596581376E-01  0.504197339224E-01  0.534507130016E-01  0.566627049712E-01  0.600664077717E-01
  0.636731410130E-01  0.674948811012E-01  0.715442982527E-01  0.758347954906E-01  0.803805497175E-01
  0.851965549647E-01  0.902986679198E-01  0.957036558409E-01  0.101429246966E+00  0.107494183532E+00
  0.113918277521E+00  0.120722469251E+00  0.127928888944E+00  0.135560921385E+00  0.143643273820E+00
  0.152202047200E+00  0.161264810941E+00  0.170860681307E+00  0.181020403569E+00  0.191776438085E+00
  0.203163050430E+00  0.215216405739E+00  0.227974667376E+00  0.241478100096E+00  0.255769177833E+00
  0.270892696232E+00  0.286895890087E+00  0.303828555787E+00  0.321743178904E+00  0.340695067026E+00
  0.360742487952E+00  0.381946813321E+00  0.404372667767E+00  0.428088083660E+00  0.453164661460E+00
  0.479677735732E+00  0.507706546797E+00  0.537334417993E+00  0.568648938498E+00  0.601742151599E+00
  0.636710748285E+00  0.673656265975E+00  0.712685292155E+00  0.753909672643E+00  0.797446724132E+00
  0.843419450594E+00  0.891956763077E+00  0.943193702312E+00  0.997271663478E+00  0.105433862238E+01
  0.111454936217E+01  0.117806569965E+01  0.124505671002E+01  0.131569894893E+01  0.139017667029E+01
  0.146868203846E+01  0.155141533301E+01  0.163858514419E+01  0.173040855697E+01  0.182711132141E+01
  0.192892800676E+01  0.203610213657E+01  0.214888630174E+01  0.226754224832E+01  0.239234093630E+01
  0.252356256569E+01  0.266149656569E+01  0.280644154229E+01  0.295870517969E+01  0.311860409020E+01
  0.328646360705E+01  0.346261751445E+01  0.364740770824E+01  0.384118378095E+01  0.404430252381E+01
  0.425712733877E+01  0.448002755241E+01  0.471337762406E+01  0.495755623950E+01  0.521294528173E+01
  0.547992866983E+01  0.575889105691E+01  0.605021637793E+01  0.635428623785E+01  0.667147813127E+01
  0.700216348380E+01  0.734670550676E+01  0.770545685606E+01  0.807875708754E+01  0.846692990092E+01
  0.887028016600E+01  0.928909072523E+01  0.972361896855E+01  0.101740931775E+02  0.106407086376E+02
  0.111236235205E+02  0.116229545387E+02  0.121387723800E+02  0.126710969304E+02  0.132198923000E+02
  0.137850616670E+02  0.143664419631E+02  0.149637984263E+02  0.155768190528E+02  0.162051089863E+02
  0.168481848885E+02  0.175054693416E+02  0.181762853424E+02  0.188598509515E+02  0.195552741747E+02
  0.202615481558E+02  0.209775467745E+02  0.217020207469E+02  0.224335943382E+02  0.231707628040E+02
  0.239118906852E+02  0.246552110898E+02  0.253988261005E+02  0.261407084556E+02  0.268787046510E+02
  0.276105396196E+02  0.283338231408E+02  0.290460581345E+02  0.297446509877E+02  0.304269240580E+02
  0.310901304831E+02  0.317314714148E+02  0.323481157728E+02  0.329372225940E+02  0.334959660177E+02
  0.340215629172E+02  0.345113031437E+02  0.349625823020E+02  0.353729369240E+02  0.357400818462E+02
  0.360619495297E+02  0.363367309915E+02  0.365629179387E+02  0.367393456130E+02  0.368652357739E+02
  0.369402391566E+02  0.369644766587E+02  0.369385784233E+02  0.368637199053E+02  0.367416539355E+02
  0.365747377320E+02  0.363659537590E+02  0.361189232985E+02  0.358379115863E+02  0.355278233755E+02
  0.351941878275E+02  0.348431316988E+02  0.344813399001E+02  0.341160026398E+02  0.337547485497E+02
  0.334055634091E+02  0.330766943495E+02  0.327765397213E+02  0.325135251494E+02  0.322959666782E+02
  0.321319223164E+02  0.320290337228E+02  0.319943602291E+02  0.320342078632E+02  0.321539565030E+02
  0.323578887433E+02  0.326490245095E+02  0.330289658182E+02  0.334977564082E+02  0.340537611795E+02
  0.346935704802E+02  0.354119342445E+02  0.362017307999E+02  0.370539748071E+02  0.379578682618E+02
  0.389008977677E+02  0.398689803878E+02  0.408466593077E+02  0.418173493056E+02  0.427636306386E+02
  0.436675884204E+02  0.445111929267E+02  0.452767145384E+02  0.459471652926E+02  0.465067572946E+02
  0.469413666315E+02  0.472389899757E+02  0.473901798564E+02  0.473884436795E+02  0.472305910710E+02
  0.469170140838E+02  0.464518853095E+02  0.458432600388E+02  0.451030703640E+02  0.442470015372E+02
  0.432942439936E+02  0.422671181860E+02  0.411905736888E+02  0.400915688034E+02  0.389983419737E+02
  0.379395915016E+02  0.369435850887E+02  0.360372253652E+02  0.352451015301E+02  0.345885603056E+02
  0.340848314476E+02  0.337462439811E+02  0.335795691073E+02  0.335855243305E+02  0.337584705435E+02
  0.340863293974E+02  0.345507414849E+02  0.351274754805E+02  0.357870854083E+02  0.364957989439E+02
  0.372166085321E+02  0.379105294290E+02  0.385379825338E+02  0.390602530496E+02  0.394409689854E+02
  0.396475381715E+02  0.396524804857E+02  0.394345940330E+02  0.389798997738E+02  0.382823179079E+02
  0.373440404326E+02  0.361755771443E+02  0.347954663692E+02  0.332296563729E+02  0.315105781306E+02
  0.296759443679E+02  0.277673229396E+02  0.258285441323E+02  0.239040108190E+02  0.220369869679E+02
  0.202679431737E+02  0.186330369117E+02  0.171627993069E+02  0.158810886450E+02  0.148043528309E+02
  0.139412196154E+02  0.132924080074E+02  0.128509364528E+02  0.126026074124E+02  0.125267773768E+02
  0.125974490356E+02  0.127846747537E+02  0.130561263528E+02  0.133786286614E+02  0.137195546097E+02
  0.140480742574E+02  0.143362530056E+02  0.145599703211E+02  0.146996220890E+02  0.147405764615E+02
  0.146733685645E+02  0.144936391266E+02  0.142018409837E+02  0.138027517689E+02  0.133048396788E+02
  0.127195325073E+02  0.120604392155E+02  0.113425692234E+02  0.105815883237E+02  0.979314245642E+01
  0.899227237266E+01  0.819293396061E+01  0.740763146450E+01  0.664716393998E+01  0.592047962095E+01
  0.523462813851E+01  0.459479703579E+01  0.400441661006E+01  0.346531600948E+01  0.297791384414E+01
  0.254142839036E+01  0.215409535195E+01  0.181338421943E+01  0.151620629667E+01  0.125910789749E+01
  0.103844194074E+01  0.850512080755E+00  0.691686237736E+00  0.558480520079E+00  0.447617301650E+00
  0.356062471017E+00  0.281046514009E+00  0.220073208628E+00  0.170918867276E+00  0.131624444820E+00
  0.100482401813E+00  0.760198898456E-01  0.569795590293E-01  0.422990543126E-01  0.310900617912E-01
  0.226175869084E-01  0.162799906261E-01  0.115901759068E-01  0.815820110462E-02  0.567549763913E-02
  0.390078454306E-02  0.264770115841E-02  0.177412079775E-02  0.117306208141E-02  0.765080445262E-03
  0.491999246204E-03  0.311826960911E-03  0.194702818594E-03  0.119716255156E-03  0.724541308618E-04
  0.431420961064E-04  0.252613510421E-04  0.145380742770E-04  0.821896317955E-05  0.456181840946E-05
  0.248431288585E-05  0.132661236197E-05  0.694159800268E-06  0.355670513414E-06  0.178317068159E-06
  0.874113874353E-07  0.418636948514E-07  0.195730256193E-07  0.892644104913E-08  0.396771730934E-08
  0.171743356695E-08  0.723307895839E-09  0.296134731918E-09  0.117757347864E-09  0.454379493191E-10
  0.169969055246E-10  0.615768887289E-11  0.215836884729E-11  0.731211508945E-12  0.239168756792E-12
  0.754447530120E-13  0.229255410648E-13  0.670288659003E-14  0.188331914047E-14  0.507873319159E-15
  0.131276477334E-15
 kinetic energy-density
  0.149003659908E+06  0.148916001317E+06  0.148847312823E+06  0.148798089126E+06  0.148768838189E+06
  0.148760081722E+06  0.148772356231E+06  0.148806214051E+06  0.148862224386E+06  0.148940974325E+06
  0.149043070384E+06  0.149169139658E+06  0.149319831200E+06  0.149495817653E+06  0.149697796822E+06
  0.149926492883E+06  0.150182658607E+06  0.150467076977E+06  0.150780562258E+06  0.151123963791E+06
  0.151498164362E+06  0.151904086002E+06  0.152342689668E+06  0.152814977091E+06  0.153321993567E+06
  0.153864829773E+06  0.154444623522E+06  0.155062561025E+06  0.155719880964E+06  0.156417873988E+06
  0.157157887217E+06  0.157941324147E+06  0.158769648729E+06  0.159644385938E+06  0.160567125384E+06
  0.161539523111E+06  0.162563303620E+06  0.163640263430E+06  0.164772272826E+06  0.165961279020E+06
  0.167209309245E+06  0.168518473342E+06  0.169890967338E+06  0.171329076550E+06  0.172835179216E+06
  0.174411750106E+06  0.176061364320E+06  0.177786701334E+06  0.179590549140E+06  0.181475808598E+06
  0.183445497963E+06  0.185502757572E+06  0.187650854720E+06  0.189893188706E+06  0.192233296045E+06
  0.194674855853E+06  0.197221695391E+06  0.199877795771E+06  0.202647297799E+06  0.205534507977E+06
  0.208543904626E+06  0.211680144139E+06  0.214948067354E+06  0.218352705911E+06  0.221899288941E+06
  0.225593249502E+06  0.229440231290E+06  0.233446095222E+06  0.237616926053E+06  0.241959038993E+06
  0.246478986072E+06  0.251183562607E+06  0.256079813380E+06  0.261175038559E+06  0.266476799428E+06
  0.271992923784E+06  0.277731510819E+06  0.283700935848E+06  0.289909853976E+06  0.296367203738E+06
  0.303082209445E+06  0.310064383062E+06  0.317323525135E+06  0.324869724373E+06  0.332713356278E+06
  0.340865080485E+06  0.349335836229E+06  0.358136836725E+06  0.367279561169E+06  0.376775745084E+06
  0.386637368156E+06  0.396876639955E+06  0.407505982709E+06  0.418538011240E+06  0.429985509769E+06
  0.441861405387E+06  0.454178737507E+06  0.466950623685E+06  0.480190220835E+06  0.493910681972E+06
  0.508125107985E+06  0.522846494003E+06  0.538087670410E+06  0.553861237561E+06  0.570179494269E+06
  0.587054360194E+06  0.604497289924E+06  0.622519181439E+06  0.641130275355E+06  0.660340047439E+06
  0.680157091878E+06  0.700588997338E+06  0.721642212950E+06  0.743321906722E+06  0.765631814114E+06
  0.788574078761E+06  0.812149082798E+06  0.836355270146E+06  0.861188959872E+06  0.886644152336E+06
  0.912712327254E+06  0.939382234581E+06  0.966639679589E+06  0.994467302123E+06  0.102284435215E+07
  0.105174646207E+07  0.108114541813E+07  0.111100893213E+07  0.114130041588E+07  0.117197876062E+07
  0.120299812376E+07  0.123430772639E+07  0.126585166384E+07  0.129756873373E+07  0.132939228454E+07
  0.136125008899E+07  0.139306424649E+07  0.142475111934E+07  0.145622130707E+07  0.148737966451E+07
  0.151812536795E+07  0.154835203526E+07  0.157794790482E+07  0.160679607857E+07  0.163477483424E+07
  0.166175801167E+07  0.168761547753E+07  0.171221367276E+07  0.173541624593E+07  0.175708477539E+07
  0.177707958202E+07  0.179526063336E+07  0.181148853862E+07  0.182562563297E+07  0.183753714752E+07
  0.184709246009E+07  0.185416641990E+07  0.185864073708E+07  0.186040542619E+07  0.185936029045E+07
  0.185541643121E+07  0.184849776494E+07  0.183854252784E+07  0.182550474593E+07  0.180935564664E+07
  0.179008498605E+07  0.176770226475E+07  0.174223780391E+07  0.171374365304E+07  0.168229430067E+07
  0.164798715999E+07  0.161094280285E+07  0.157130491778E+07  0.152923997058E+07  0.148493654959E+07
  0.143860438229E+07  0.139047301445E+07  0.134079014853E+07  0.128981964305E+07  0.123783918065E+07
  0.118513761812E+07  0.113201203849E+07  0.107876453454E+07  0.102569875379E+07  0.973116272756E+06
  0.921312836845E+06  0.870574556382E+06  0.821174130499E+06  0.773367181275E+06  0.727388775831E+06
  0.683450207230E+06  0.641736096963E+06  0.602401874625E+06  0.565571684627E+06  0.531336764933E+06
  0.499754337970E+06  0.470847048189E+06  0.444602973504E+06  0.420976228674E+06  0.399888167498E+06
  0.381229177847E+06  0.364861049559E+06  0.350619881052E+06  0.338319476367E+06  0.327755171338E+06
  0.318708015759E+06  0.310949228330E+06  0.304244832874E+06  0.298360378161E+06  0.293065639255E+06
  0.288139196368E+06  0.283372786846E+06  0.278575328228E+06  0.273576514262E+06  0.268229892553E+06
  0.262415341346E+06  0.256040874677E+06  0.249043719892E+06  0.241390629023E+06  0.233077406377E+06
  0.224127657538E+06  0.214590789250E+06  0.204539312992E+06  0.194065526386E+06  0.183277664670E+06
  0.172295632064E+06  0.161246442950E+06  0.150259528771E+06  0.139462089753E+06  0.128974697416E+06
  0.118907324094E+06  0.109355989306E+06  0.100400101126E+06  0.921005632813E+05  0.844986377164E+05
  0.776155491188E+05  0.714528193377E+05  0.659933135000E+05  0.612029532432E+05  0.570330163957E+05
  0.534229088460E+05  0.503032684872E+05  0.475992451219E+05  0.452337952574E+05  0.431308372862E+05
  0.412181290634E+05  0.394297540804E+05  0.377081311784E+05  0.360054934808E+05  0.342848124018E+05
  0.325201703405E+05  0.306966095867E+05  0.288095042740E+05  0.268635174898E+05  0.248712177551E+05
  0.228514405273E+05  0.208274924090E+05  0.188253085844E+05  0.168716818148E+05  0.149926737224E+05
  0.132122764408E+05  0.115513173806E+05  0.100265419892E+05  0.864984080585E+04  0.742774099184E+04
  0.636138914847E+04  0.544711550185E+04  0.467731236769E+04  0.404127035444E+04  0.352589904066E+04
  0.311644117672E+04  0.279721249480E+04  0.255232662733E+04  0.236635660153E+04  0.222489968456E+04
  0.211502441752E+04  0.202558670572E+04  0.194741032184E+04  0.187333717729E+04  0.179816222651E+04
  0.171847492771E+04  0.163243294684E+04  0.153949447027E+04  0.144013348533E+04  0.133555899005E+04
  0.122745409223E+04  0.111774680955E+04  0.100841895323E+04  0.901356191013E+03  0.798238832990E+03
  0.700470790182E+03  0.609142312352E+03  0.525021228796E+03  0.448566625816E+03  0.379958509755E+03
  0.319137049903E+03  0.265845755763E+03  0.219674552465E+03  0.180100812931E+03  0.146527947102E+03
  0.118321253712E+03  0.948396930198E+02  0.754617491739E+02  0.596039806971E+02  0.467324809422E+02
  0.363684915030E+02  0.280897972546E+02  0.215293169298E+02  0.163719271043E+02  0.123502390487E+02
  0.923982943612E+01  0.685428128723E+01  0.504028853278E+01  0.367299844940E+01  0.265170374197E+01
  0.189594741291E+01  0.134206695079E+01  0.940178031077E+00  0.651579934444E+00  0.446553418149E+00
  0.302515153430E+00  0.202489786031E+00  0.133860125507E+00  0.873571136826E-01  0.562534989331E-01
  0.357281127278E-01  0.223710127734E-01  0.138033025026E-01  0.838898461567E-02  0.501962441503E-02
  0.295577917947E-02  0.171202342300E-02  0.974931303261E-03  0.545560957637E-03  0.299834718324E-03
  0.161747744379E-03  0.855939378565E-04  0.444026575210E-04  0.225647840869E-04  0.112250526099E-04
  0.546191412295E-05  0.259748321287E-05  0.120629684173E-05  0.546617155311E-06  0.241472253437E-06
  0.103902811948E-06  0.435089491570E-07  0.177145355555E-07  0.700619450032E-08  0.268923567525E-08
  0.100081379389E-08  0.360768160862E-09  0.125838769409E-09  0.424287125975E-10  0.138133197755E-10
  0.433758205498E-11  0.131223430131E-11  0.382010148343E-12  0.106882453632E-12  0.287048798035E-13
  0.739015552586E-14
 mkinetic energy-density pseudized
  0.290534535310E-05  0.309736659500E-05  0.330207898117E-05  0.352032129972E-05  0.375298777632E-05
  0.400103173812E-05  0.426546951997E-05  0.454738462870E-05  0.484793218271E-05  0.516834364493E-05
  0.550993186863E-05  0.587409647668E-05  0.626232959639E-05  0.667622197330E-05  0.711746948914E-05
  0.758788011052E-05  0.808938129686E-05  0.862402789800E-05  0.919401057368E-05  0.980166476959E-05
  0.104494802866E-04  0.111401114824E-04  0.118763881476E-04  0.126613271003E-04  0.134981445473E-04
  0.143902692623E-04  0.153413566347E-04  0.163553036472E-04  0.174362648435E-04  0.185886693508E-04
  0.198172390279E-04  0.211270078125E-04  0.225233423470E-04  0.240119639679E-04  0.255989721486E-04
  0.272908694909E-04  0.290945883688E-04  0.310175193334E-04  0.330675413947E-04  0.352530543049E-04
  0.375830129756E-04  0.400669641694E-04  0.427150856170E-04  0.455382277187E-04  0.485479580035E-04
  0.517566085250E-04  0.551773263910E-04  0.588241276321E-04  0.627119546307E-04  0.668567373458E-04
  0.712754585840E-04  0.759862235845E-04  0.810083342032E-04  0.863623679997E-04  0.920702625511E-04
  0.981554053388E-04  0.104642729575E-03  0.111558816366E-03  0.118932003619E-03  0.126792502159E-03
  0.135172519512E-03  0.144106391868E-03  0.153630724773E-03  0.163784543110E-03  0.174609451005E-03
  0.186149802286E-03  0.198452882222E-03  0.211569101263E-03  0.225552201593E-03  0.240459477326E-03
  0.256352009263E-03  0.273294915157E-03  0.291357616524E-03  0.310614123084E-03  0.331143336004E-03
  0.353029371179E-03  0.376361903882E-03  0.401236536190E-03  0.427755188692E-03  0.456026518093E-03
  0.486166362404E-03  0.518298215565E-03  0.552553733434E-03  0.589073273211E-03  0.628006468520E-03
  0.669512842490E-03  0.713762461359E-03  0.760936631271E-03  0.811228641126E-03  0.864844554518E-03
  0.922004054016E-03  0.982941341237E-03  0.104790609641E-02  0.111716450133E-02  0.119100032996E-02
  0.126971611106E-02  0.135363436767E-02  0.144309893853E-02  0.153847638674E-02  0.164015750163E-02
  0.174855889977E-02  0.186412473186E-02  0.198732850235E-02  0.211867500934E-02  0.225870241269E-02
  0.240798443873E-02  0.256713273069E-02  0.273679935448E-02  0.291767946994E-02  0.311051417873E-02
  0.331609356027E-02  0.353525990837E-02  0.376891118165E-02  0.401800468199E-02  0.428356097597E-02
  0.456666807539E-02  0.486848589404E-02  0.519025099887E-02  0.553328167500E-02  0.589898332545E-02
  0.628885422743E-02  0.670449166899E-02  0.714759849095E-02  0.761999006103E-02  0.812360170851E-02
  0.866049665004E-02  0.923287443880E-02  0.984307997177E-02  0.104936130917E-01  0.111871388232E-01
  0.119264982849E-01  0.127147203214E-01  0.135550339045E-01  0.144508813514E-01  0.154059324174E-01
  0.164240993167E-01  0.175095527367E-01  0.186667389075E-01  0.199003977988E-01  0.212155825168E-01
  0.226176799815E-01  0.241124329674E-01  0.257059635984E-01  0.274047983917E-01  0.292158949537E-01
  0.311466704354E-01  0.332050318641E-01  0.353994084736E-01  0.377387861656E-01  0.402327442405E-01
  0.428914945484E-01  0.457259232185E-01  0.487476351347E-01  0.519690013403E-01  0.554032095604E-01
  0.590643180494E-01  0.629673129786E-01  0.671281695973E-01  0.715639174125E-01  0.762927096515E-01
  0.813338972853E-01  0.867081079108E-01  0.924373298088E-01  0.985450015136E-01  0.105056107254E+00
  0.111997278646E+00  0.119396903043E+00  0.127285238973E+00  0.135694539128E+00  0.144659181382E+00
  0.154215808369E+00  0.164403476162E+00  0.175263812640E+00  0.186841186169E+00  0.199182885254E+00
  0.212339309865E+00  0.226364175175E+00  0.241314728509E+00  0.257251980335E+00  0.274240950188E+00
  0.292350928463E+00  0.311655755082E+00  0.332234116087E+00  0.354169859274E+00  0.377552330058E+00
  0.402476728809E+00  0.429044490995E+00  0.457363691512E+00  0.487549474682E+00  0.519724511471E+00
  0.554019485564E+00  0.590573610009E+00  0.629535176257E+00  0.671062137483E+00  0.715322728196E+00
  0.762496122216E+00  0.812773131213E+00  0.866356946091E+00  0.923463923593E+00  0.984324420608E+00
  0.104918367875E+01  0.111830276186E+01  0.119195954924E+01  0.127044978735E+01  0.135408820297E+01
  0.144320968073E+01  0.153817050806E+01  0.163934969062E+01  0.174715034126E+01  0.186200114549E+01
  0.198435790667E+01  0.211470517364E+01  0.225355795380E+01  0.240146351417E+01  0.255900327300E+01
  0.272679478401E+01  0.290549381510E+01  0.309579652294E+01  0.329844172413E+01  0.351421326320E+01
  0.374394247673E+01  0.398851075193E+01  0.424885217699E+01  0.452595627899E+01  0.482087084383E+01
  0.513470481043E+01  0.546863122974E+01  0.582389027615E+01  0.620179229655E+01  0.660372087830E+01
  0.703113591429E+01  0.748557663833E+01  0.796866459942E+01  0.848210653778E+01  0.902769711886E+01
  0.960732147459E+01  0.102229574924E+02  0.108766777838E+02  0.115706512532E+02  0.123071441765E+02
  0.130885206849E+02  0.139172425370E+02  0.147958680412E+02  0.157270499795E+02  0.167135323556E+02
  0.177581457759E+02  0.188638012425E+02  0.200334821130E+02  0.212702339560E+02  0.225771519951E+02
  0.239573658072E+02  0.254140209035E+02  0.269502567847E+02  0.285691810267E+02  0.302738389123E+02
  0.320671780868E+02  0.339520076793E+02  0.359309512919E+02  0.380063932329E+02  0.401804173395E+02
  0.424547377200E+02  0.448306207409E+02  0.473087975900E+02  0.498893667791E+02  0.525716860045E+02
  0.553542528666E+02  0.582345740823E+02  0.612090229928E+02  0.642726854086E+02  0.674191941342E+02
  0.706405529071E+02  0.739269509674E+02  0.772665700798E+02  0.806453865547E+02  0.840469716965E+02
  0.874522951434E+02  0.908395367823E+02  0.941839143285E+02  0.974575352622E+02  0.100629283606E+03
  0.103664754007E+03  0.106526247709E+03  0.109172847225E+03  0.111560588768E+03  0.113642753646E+03
  0.115370301712E+03  0.116692471387E+03  0.117557571419E+03  0.117913989076E+03  0.117711437434E+03
  0.116902460223E+03  0.115444205771E+03  0.113300471071E+03  0.110444002143E+03  0.106859016775E+03
  0.102543889472E+03  0.975139053090E+02  0.918039487718E+02  0.854709454817E+02  0.785958194003E+02
  0.712846672921E+02  0.636687887139E+02  0.559031484126E+02  0.481627958934E+02  0.406367342128E+02
  0.335187303208E+02  0.269946099555E+02  0.212257023759E+02  0.163283186214E+02  0.123494878385E+02
  0.923982943612E+01  0.685428128723E+01  0.504028853278E+01  0.367299844940E+01  0.265170374197E+01
  0.189594741291E+01  0.134206695079E+01  0.940178031077E+00  0.651579934444E+00  0.446553418149E+00
  0.302515153430E+00  0.202489786031E+00  0.133860125507E+00  0.873571136826E-01  0.562534989331E-01
  0.357281127278E-01  0.223710127734E-01  0.138033025026E-01  0.838898461567E-02  0.501962441503E-02
  0.295577917947E-02  0.171202342300E-02  0.974931303261E-03  0.545560957637E-03  0.299834718324E-03
  0.161747744379E-03  0.855939378565E-04  0.444026575210E-04  0.225647840869E-04  0.112250526099E-04
  0.546191412295E-05  0.259748321287E-05  0.120629684173E-05  0.546617155311E-06  0.241472253437E-06
  0.103902811948E-06  0.435089491570E-07  0.177145355555E-07  0.700619450032E-08  0.268923567525E-08
  0.100081379389E-08  0.360768160862E-09  0.125838769409E-09  0.424287125975E-10  0.138133197755E-10
  0.433758205498E-11  0.131223430131E-11  0.382010148343E-12  0.106882453632E-12  0.287048798035E-13
  0.739015552586E-14
 local pseudopotential core
 -0.203216352265E+03 -0.203214877728E+03 -0.203213449627E+03 -0.203212066501E+03 -0.203210726932E+03
 -0.203209429551E+03 -0.203208173026E+03 -0.203206956072E+03 -0.203205777442E+03 -0.203204635929E+03
 -0.203203530365E+03 -0.203202459616E+03 -0.203201422587E+03 -0.203200418215E+03 -0.203199445471E+03
 -0.203198503360E+03 -0.203197590916E+03 -0.203196707205E+03 -0.203195851321E+03 -0.203195022389E+03
 -0.203194219559E+03 -0.203193442008E+03 -0.203192688941E+03 -0.203191959586E+03 -0.203191253196E+03
 -0.203190569047E+03 -0.203189906439E+03 -0.203189264693E+03 -0.203188643151E+03 -0.203188041177E+03
 -0.203187458154E+03 -0.203186893485E+03 -0.203186346590E+03 -0.203185816911E+03 -0.203185303903E+03
 -0.203184807042E+03 -0.203184325819E+03 -0.203183859739E+03 -0.203183408326E+03 -0.203182971116E+03
 -0.203182547662E+03 -0.203182137530E+03 -0.203181740298E+03 -0.203181355560E+03 -0.203180982921E+03
 -0.203180621998E+03 -0.203180272423E+03 -0.203179933835E+03 -0.203179605887E+03 -0.203179288244E+03
 -0.203178980578E+03 -0.203178682574E+03 -0.203178393925E+03 -0.203178114335E+03 -0.203177843518E+03
 -0.203177581193E+03 -0.203177327092E+03 -0.203177080952E+03 -0.203176842521E+03 -0.203176611553E+03
 -0.203176387809E+03 -0.203176171059E+03 -0.203175961080E+03 -0.203175757654E+03 -0.203175560570E+03
 -0.203175369626E+03 -0.203175184623E+03 -0.203175005369E+03 -0.203174831678E+03 -0.203174663370E+03
 -0.203174500268E+03 -0.203174342204E+03 -0.203174189011E+03 -0.203174040530E+03 -0.203173896604E+03
 -0.203173757083E+03 -0.203173621818E+03 -0.203173490666E+03 -0.203173363489E+03 -0.203173240152E+03
 -0.203173120521E+03 -0.203173004468E+03 -0.203172891870E+03 -0.203172782602E+03 -0.203172676547E+03
 -0.203172573588E+03 -0.203172473611E+03 -0.203172376505E+03 -0.203172282162E+03 -0.203172190474E+03
 -0.203172101338E+03 -0.203172014651E+03 -0.203171930312E+03 -0.203171848221E+03 -0.203171768282E+03
 -0.203171690397E+03 -0.203171614472E+03 -0.203171540412E+03 -0.203171468123E+03 -0.203171397512E+03
 -0.203171328488E+03 -0.203171260959E+03 -0.203171194831E+03 -0.203171130013E+03 -0.203171066414E+03
 -0.203171003939E+03 -0.203170942496E+03 -0.203170881990E+03 -0.203170822325E+03 -0.203170763406E+03
 -0.203170705133E+03 -0.203170647407E+03 -0.203170590124E+03 -0.203170533181E+03 -0.203170476469E+03
 -0.203170419878E+03 -0.203170363294E+03 -0.203170306600E+03 -0.203170249673E+03 -0.203170192389E+03
 -0.203170134616E+03 -0.203170076218E+03 -0.203170017053E+03 -0.203169956972E+03 -0.203169895822E+03
 -0.203169833440E+03 -0.203169769656E+03 -0.203169704292E+03 -0.203169637161E+03 -0.203169568064E+03
 -0.203169496794E+03 -0.203169423133E+03 -0.203169346850E+03 -0.203169267699E+03 -0.203169185424E+03
 -0.203169099750E+03 -0.203169010390E+03 -0.203168917038E+03 -0.203168819369E+03 -0.203168717039E+03
 -0.203168609684E+03 -0.203168496917E+03 -0.203168378328E+03 -0.203168253479E+03 -0.203168121908E+03
 -0.203167983122E+03 -0.203167836596E+03 -0.203167681775E+03 -0.203167518067E+03 -0.203167344840E+03
 -0.203167161426E+03 -0.203166967110E+03 -0.203166761133E+03 -0.203166542688E+03 -0.203166310913E+03
 -0.203166064892E+03 -0.203165803650E+03 -0.203165526147E+03 -0.203165231276E+03 -0.203164917858E+03
 -0.203164584636E+03 -0.203164230272E+03 -0.203163853340E+03 -0.203163452320E+03 -0.203163025593E+03
 -0.203162571432E+03 -0.203162088000E+03 -0.203161573335E+03 -0.203161025348E+03 -0.203160441813E+03
 -0.203159820356E+03 -0.203159158447E+03 -0.203158453389E+03 -0.203157702306E+03 -0.203156902134E+03
 -0.203156049604E+03 -0.203155141235E+03 -0.203154173311E+03 -0.203153141873E+03 -0.203152042699E+03
 -0.203150871288E+03 -0.203149622839E+03 -0.203148292237E+03 -0.203146874022E+03 -0.203145362377E+03
 -0.203143751096E+03 -0.203142033561E+03 -0.203140202717E+03 -0.203138251038E+03 -0.203136170497E+03
 -0.203133952534E+03 -0.203131588021E+03 -0.203129067219E+03 -0.203126379742E+03 -0.203123514512E+03
 -0.203120459710E+03 -0.203117202730E+03 -0.203113730122E+03 -0.203110027538E+03 -0.203106079671E+03
 -0.203101870188E+03 -0.203097381659E+03 -0.203092595489E+03 -0.203087491833E+03 -0.203082049509E+03
 -0.203076245914E+03 -0.203070056920E+03 -0.203063456773E+03 -0.203056417977E+03 -0.203048911179E+03
 -0.203040905038E+03 -0.203032366085E+03 -0.203023258580E+03 -0.203013544347E+03 -0.203003182612E+03
 -0.202992129812E+03 -0.202980339404E+03 -0.202967761651E+03 -0.202954343401E+03 -0.202940027836E+03
 -0.202924754215E+03 -0.202908457590E+03 -0.202891068503E+03 -0.202872512660E+03 -0.202852710576E+03
 -0.202831577199E+03 -0.202809021494E+03 -0.202784946005E+03 -0.202759246378E+03 -0.202731810839E+03
 -0.202702519638E+03 -0.202671244444E+03 -0.202637847690E+03 -0.202602181862E+03 -0.202564088731E+03
 -0.202523398514E+03 -0.202479928967E+03 -0.202433484403E+03 -0.202383854609E+03 -0.202330813685E+03
 -0.202274118767E+03 -0.202213508632E+03 -0.202148702185E+03 -0.202079396798E+03 -0.202005266491E+03
 -0.201925959940E+03 -0.201841098302E+03 -0.201750272807E+03 -0.201653042132E+03 -0.201548929492E+03
 -0.201437419453E+03 -0.201317954395E+03 -0.201189930621E+03 -0.201052694046E+03 -0.200905535424E+03
 -0.200747685056E+03 -0.200578306918E+03 -0.200396492140E+03 -0.200201251749E+03 -0.199991508605E+03
 -0.199766088412E+03 -0.199523709715E+03 -0.199262972752E+03 -0.198982347036E+03 -0.198680157523E+03
 -0.198354569216E+03 -0.198003570030E+03 -0.197624951758E+03 -0.197216288942E+03 -0.196774915466E+03
 -0.196297898674E+03 -0.195782010828E+03 -0.195223697726E+03 -0.194619044318E+03 -0.193963737191E+03
 -0.193253023850E+03 -0.192481668776E+03 -0.191643906368E+03 -0.190733390999E+03 -0.189743144606E+03
 -0.188665502539E+03 -0.187492058700E+03 -0.186213611542E+03 -0.184820113155E+03 -0.183300624523E+03
 -0.181643281301E+03 -0.179835276017E+03 -0.177862864743E+03 -0.175711409102E+03 -0.173365468073E+03
 -0.170808958741E+03 -0.168025410900E+03 -0.164998347463E+03 -0.161711830693E+03 -0.158151222940E+03
 -0.154304218577E+03 -0.150162208982E+03 -0.145722040828E+03 -0.140988213537E+03 -0.135975525890E+03
 -0.130712113265E+03 -0.125242704092E+03 -0.119631758725E+03 -0.113965940294E+03 -0.108355134300E+03
 -0.102931049364E+03 -0.978424074930E+02 -0.932460065198E+02 -0.892936167087E+02 -0.861157416559E+02
 -0.838017422558E+02 -0.822541871627E+02 -0.796459896145E+02 -0.771299726096E+02 -0.746953783687E+02
 -0.723390630645E+02 -0.700581239640E+02 -0.678498597756E+02 -0.657117392302E+02 -0.636413758368E+02
 -0.616365077125E+02 -0.596949802660E+02 -0.578147340918E+02 -0.559937942315E+02 -0.542302619667E+02
 -0.525223083058E+02 -0.508681688386E+02 -0.492661394565E+02 -0.477145729281E+02 -0.462118760475E+02
 -0.447565072012E+02 -0.433469742617E+02 -0.419818327345E+02 -0.406596840132E+02 -0.393791738320E+02
 -0.381389907726E+02 -0.369378648150E+02 -0.357745660208E+02 -0.346479032127E+02 -0.335567227238E+02
 -0.324999072001E+02 -0.314763744484E+02 -0.304850763248E+02 -0.295249976676E+02 -0.285951552648E+02
 -0.276945968550E+02 -0.268224001602E+02 -0.259776719464E+02 -0.251595471125E+02 -0.243671878060E+02
 -0.235997825660E+02 -0.228565454922E+02 -0.221367154387E+02 -0.214395552347E+02 -0.207643509277E+02
 -0.201104110524E+02 -0.194770659216E+02 -0.188636669397E+02 -0.182695859382E+02 -0.176942145321E+02
 -0.171369634967E+02
 pspotential valence only
 -0.721375340499E+02 -0.721360595279E+02 -0.721346314437E+02 -0.721332483353E+02 -0.721319087861E+02
 -0.721306114244E+02 -0.721293549214E+02 -0.721281379902E+02 -0.721269593849E+02 -0.721258178984E+02
 -0.721247123619E+02 -0.721236416429E+02 -0.721226046452E+02 -0.721216003070E+02 -0.721206275993E+02
 -0.721196855263E+02 -0.721187731230E+02 -0.721178894556E+02 -0.721170336185E+02 -0.721162047356E+02
 -0.721154019582E+02 -0.721146244641E+02 -0.721138714571E+02 -0.721131421661E+02 -0.721124358442E+02
 -0.721117517683E+02 -0.721110892378E+02 -0.721104475743E+02 -0.721098261207E+02 -0.721092242405E+02
 -0.721086413176E+02 -0.721080767550E+02 -0.721075299745E+02 -0.721070004165E+02 -0.721064875385E+02
 -0.721059908156E+02 -0.721055097389E+02 -0.721050438162E+02 -0.721045925701E+02 -0.721041555388E+02
 -0.721037322747E+02 -0.721033223447E+02 -0.721029253289E+02 -0.721025408209E+02 -0.721021684272E+02
 -0.721018077666E+02 -0.721014584698E+02 -0.721011201793E+02 -0.721007925489E+02 -0.721004752433E+02
 -0.721001679377E+02 -0.720998703177E+02 -0.720995820786E+02 -0.720993029257E+02 -0.720990325733E+02
 -0.720987707449E+02 -0.720985171726E+02 -0.720982715971E+02 -0.720980337673E+02 -0.720978034400E+02
 -0.720975803799E+02 -0.720973643587E+02 -0.720971551559E+02 -0.720969525577E+02 -0.720967563571E+02
 -0.720965663539E+02 -0.720963823540E+02 -0.720962041696E+02 -0.720960316190E+02 -0.720958645263E+02
 -0.720957027210E+02 -0.720955460383E+02 -0.720953943187E+02 -0.720952474078E+02 -0.720951051562E+02
 -0.720949674192E+02 -0.720948340569E+02 -0.720947049341E+02 -0.720945799198E+02 -0.720944588873E+02
 -0.720943417144E+02 -0.720942282825E+02 -0.720941184772E+02 -0.720940121879E+02 -0.720939093076E+02
 -0.720938097331E+02 -0.720937133647E+02 -0.720936201059E+02 -0.720935298638E+02 -0.720934425487E+02
 -0.720933580739E+02 -0.720932763560E+02 -0.720931973146E+02 -0.720931208721E+02 -0.720930469540E+02
 -0.720929754885E+02 -0.720929064066E+02 -0.720928396420E+02 -0.720927751310E+02 -0.720927128128E+02
 -0.720926526288E+02 -0.720925945233E+02 -0.720925384428E+02 -0.720924843365E+02 -0.720924321559E+02
 -0.720923818551E+02 -0.720923333904E+02 -0.720922867207E+02 -0.720922418073E+02 -0.720921986137E+02
 -0.720921571060E+02 -0.720921172526E+02 -0.720920790243E+02 -0.720920423945E+02 -0.720920073387E+02
 -0.720919738354E+02 -0.720919418651E+02 -0.720919114112E+02 -0.720918824596E+02 -0.720918549989E+02
 -0.720918290205E+02 -0.720918045184E+02 -0.720917814896E+02 -0.720917599342E+02 -0.720917398551E+02
 -0.720917212586E+02 -0.720917041542E+02 -0.720916885547E+02 -0.720916744767E+02 -0.720916619403E+02
 -0.720916509695E+02 -0.720916415924E+02 -0.720916338412E+02 -0.720916277528E+02 -0.720916233685E+02
 -0.720916207345E+02 -0.720916199023E+02 -0.720916209288E+02 -0.720916238763E+02 -0.720916288136E+02
 -0.720916358157E+02 -0.720916449640E+02 -0.720916563476E+02 -0.720916700626E+02 -0.720916862134E+02
 -0.720917049128E+02 -0.720917262825E+02 -0.720917504537E+02 -0.720917775677E+02 -0.720918077767E+02
 -0.720918412439E+02 -0.720918781449E+02 -0.720919186680E+02 -0.720919630152E+02 -0.720920114028E+02
 -0.720920640629E+02 -0.720921212438E+02 -0.720921832110E+02 -0.720922502491E+02 -0.720923226620E+02
 -0.720924007749E+02 -0.720924849352E+02 -0.720925755142E+02 -0.720926729086E+02 -0.720927775421E+02
 -0.720928898670E+02 -0.720930103665E+02 -0.720931395562E+02 -0.720932779864E+02 -0.720934262445E+02
 -0.720935849572E+02 -0.720937547931E+02 -0.720939364656E+02 -0.720941307357E+02 -0.720943384148E+02
 -0.720945603686E+02 -0.720947975202E+02 -0.720950508537E+02 -0.720953214186E+02 -0.720956103339E+02
 -0.720959187925E+02 -0.720962480659E+02 -0.720965995097E+02 -0.720969745687E+02 -0.720973747828E+02
 -0.720978017932E+02 -0.720982573488E+02 -0.720987433135E+02 -0.720992616731E+02 -0.720998145435E+02
 -0.721004041792E+02 -0.721010329819E+02 -0.721017035100E+02 -0.721024184887E+02 -0.721031808207E+02
 -0.721039935974E+02 -0.721048601112E+02 -0.721057838675E+02 -0.721067685993E+02 -0.721078182806E+02
 -0.721089371421E+02 -0.721101296869E+02 -0.721114007080E+02 -0.721127553060E+02 -0.721141989083E+02
 -0.721157372893E+02 -0.721173765917E+02 -0.721191233490E+02 -0.721209845093E+02 -0.721229674605E+02
 -0.721250800565E+02 -0.721273306453E+02 -0.721297280983E+02 -0.721322818408E+02 -0.721350018849E+02
 -0.721378988629E+02 -0.721409840633E+02 -0.721442694679E+02 -0.721477677907E+02 -0.721514925187E+02
 -0.721554579538E+02 -0.721596792575E+02 -0.721641724961E+02 -0.721689546880E+02 -0.721740438530E+02
 -0.721794590625E+02 -0.721852204909E+02 -0.721913494690E+02 -0.721978685381E+02 -0.722048015044E+02
 -0.722121734944E+02 -0.722200110109E+02 -0.722283419876E+02 -0.722371958443E+02 -0.722466035397E+02
 -0.722565976228E+02 -0.722672122814E+02 -0.722784833863E+02 -0.722904485313E+02 -0.723031470660E+02
 -0.723166201211E+02 -0.723309106238E+02 -0.723460633006E+02 -0.723621246659E+02 -0.723791429919E+02
 -0.723971682578E+02 -0.724162520719E+02 -0.724364475635E+02 -0.724578092373E+02 -0.724803927838E+02
 -0.725042548372E+02 -0.725294526720E+02 -0.725560438258E+02 -0.725840856368E+02 -0.726136346803E+02
 -0.726447460878E+02 -0.726774727283E+02 -0.727118642310E+02 -0.727479658235E+02 -0.727858169590E+02
 -0.728254497005E+02 -0.728668868304E+02 -0.729101396477E+02 -0.729552054160E+02 -0.730020644215E+02
 -0.730506765999E+02 -0.731009776928E+02 -0.731528748928E+02 -0.732062419444E+02 -0.732609136685E+02
 -0.733166798925E+02 -0.733732787749E+02 -0.734303895319E+02 -0.734876245924E+02 -0.735445212312E+02
 -0.736005327590E+02 -0.736550193833E+02 -0.737072388882E+02 -0.737563373288E+02 -0.738013399761E+02
 -0.738411428011E+02 -0.738745048314E+02 -0.739000417658E+02 -0.739162212731E+02 -0.739213604444E+02
 -0.739136258978E+02 -0.738910370575E+02 -0.738514731387E+02 -0.737926843682E+02 -0.737123079518E+02
 -0.736078892681E+02 -0.734769087172E+02 -0.733168145883E+02 -0.731250622097E+02 -0.728991595196E+02
 -0.726367190017E+02 -0.723355156477E+02 -0.719935501770E+02 -0.716091160788E+02 -0.711808680258E+02
 -0.707078876826E+02 -0.701897407006E+02 -0.696265155729E+02 -0.690188309402E+02 -0.683677931956E+02
 -0.676748819418E+02 -0.669417395536E+02 -0.661698471187E+02 -0.653600871224E+02 -0.645122282229E+02
 -0.636216592383E+02 -0.625481781081E+02 -0.614905194584E+02 -0.604113479413E+02 -0.593074812913E+02
 -0.581831152644E+02 -0.570424263243E+02 -0.558894659953E+02 -0.547280355384E+02 -0.535615502132E+02
 -0.523929040586E+02 -0.512243580891E+02 -0.500574830563E+02 -0.488931829035E+02 -0.477318128070E+02
 -0.465734033122E+02 -0.454179321561E+02 -0.442656236161E+02 -0.431172024737E+02 -0.419740643563E+02
 -0.408383379134E+02 -0.397128371428E+02 -0.386009183468E+02 -0.375062645933E+02 -0.364326234901E+02
 -0.353835254153E+02 -0.343620115907E+02 -0.333704039126E+02 -0.324101478582E+02 -0.314817522179E+02
 -0.305848338172E+02 -0.297182553319E+02 -0.288803265764E+02 -0.280690305525E+02 -0.272822373697E+02
 -0.265178794522E+02 -0.257740751750E+02 -0.250492004252E+02 -0.243419158607E+02 -0.236511614089E+02
 -0.229761297923E+02 -0.223162290728E+02 -0.216710416130E+02 -0.210402843132E+02 -0.204237728893E+02
 -0.198213914386E+02 -0.192330675446E+02 -0.186587525921E+02 -0.180984066753E+02 -0.175519873834E+02
 -0.170194417606E+02
 core charge-density (pseudized)
  0.265647041995E-07  0.283204292070E-07  0.301921942897E-07  0.321876688143E-07  0.343150290341E-07
  0.365829915907E-07  0.390008492296E-07  0.415785088756E-07  0.443265322263E-07  0.472561790269E-07
  0.503794532062E-07  0.537091520614E-07  0.572589186935E-07  0.610432979087E-07  0.650777958142E-07
  0.693789433530E-07  0.739643640374E-07  0.788528461598E-07  0.840644197757E-07  0.896204387745E-07
  0.955436683754E-07  0.101858378405E-06  0.108590442741E-06  0.115767445326E-06  0.123418793193E-06
  0.131575836954E-06  0.140271999259E-06  0.149542911738E-06  0.159426561003E-06  0.169963444290E-06
  0.181196735393E-06  0.193172461565E-06  0.205939692107E-06  0.219550739431E-06  0.234061373395E-06
  0.249531049822E-06  0.266023154107E-06  0.283605260940E-06  0.302349411177E-06  0.322332407025E-06
  0.343636126731E-06  0.366347860064E-06  0.390560665980E-06  0.416373753919E-06  0.443892890303E-06
  0.473230831905E-06  0.504507787854E-06  0.537851912177E-06  0.573399828902E-06  0.611297191849E-06
  0.651699281438E-06  0.694771640927E-06  0.740690754705E-06  0.789644771419E-06  0.841834274888E-06
  0.897473105969E-06  0.956789238742E-06  0.102002571461E-05  0.108744163812E-05  0.115931323862E-05
  0.123593500207E-05  0.131762087765E-05  0.140470556412E-05  0.149754588123E-05  0.159652223171E-05
  0.170204015990E-05  0.181453201347E-05  0.193445871483E-05  0.206231164972E-05  0.219861468058E-05
  0.234392629300E-05  0.249884188401E-05  0.266399620162E-05  0.284006594559E-05  0.302777254009E-05
  0.322788508957E-05  0.344122353009E-05  0.366866198875E-05  0.391113236534E-05  0.416962815053E-05
  0.444520849652E-05  0.473900255669E-05  0.505221411199E-05  0.538612650320E-05  0.574210788906E-05
  0.612161685194E-05  0.652620837401E-05  0.695754020833E-05  0.741737967098E-05  0.790761088213E-05
  0.843024248558E-05  0.898741587854E-05  0.958141398521E-05  0.102146706103E-04  0.108897804104E-04
  0.116095095249E-04  0.123768069087E-04  0.131948164145E-04  0.140668896730E-04  0.149965998249E-04
  0.159877561596E-04  0.170444197220E-04  0.181709199502E-04  0.193718724127E-04  0.206521977177E-04
  0.220171416720E-04  0.234722967721E-04  0.250236251148E-04  0.266774828229E-04  0.284406460830E-04
  0.303203389060E-04  0.323242627198E-04  0.344606279185E-04  0.367381874958E-04  0.391662729007E-04
  0.417548322616E-04  0.445144711366E-04  0.474564959551E-04  0.505929603305E-04  0.539367144309E-04
  0.575014576126E-04  0.613017945297E-04  0.653532949504E-04  0.696725575242E-04  0.742772777607E-04
  0.791863204989E-04  0.844197971626E-04  0.899991481169E-04  0.959472304652E-04  0.102288411642E-03
  0.109048669187E-03  0.116255697106E-03  0.123939019257E-03  0.132130110216E-03  0.140862524127E-03
  0.150172032055E-03  0.160096768404E-03  0.170677387002E-03  0.181957227479E-03  0.193982492627E-03
  0.206802437466E-03  0.220469570775E-03  0.235039869919E-03  0.250573009845E-03  0.267132607179E-03
  0.284786480413E-03  0.303606927248E-03  0.323671020217E-03  0.345060921787E-03  0.367864220219E-03
  0.392174287558E-03  0.418090661197E-03  0.445719450559E-03  0.475173770555E-03  0.506574203567E-03
  0.540049291814E-03  0.575736062115E-03  0.613780585142E-03  0.654338571433E-03  0.697576006565E-03
  0.743669828032E-03  0.792808646571E-03  0.845193514804E-03  0.901038746301E-03  0.960572788323E-03
  0.102403915175E-02  0.109169740190E-02  0.116382421416E-02  0.124071449866E-02  0.132268259847E-02
  0.141006356595E-02  0.150321452246E-02  0.160251610662E-02  0.170837401697E-02  0.182122065491E-02
  0.194151687446E-02  0.206975384561E-02  0.220645503843E-02  0.235217833573E-02  0.250751828226E-02
  0.267310847918E-02  0.284962413284E-02  0.303778476764E-02  0.323835711307E-02  0.345215817590E-02
  0.368005850891E-02  0.392298568826E-02  0.418192801225E-02  0.445793843511E-02  0.475213874982E-02
  0.506572403521E-02  0.539996738288E-02  0.575622492077E-02  0.613594115061E-02  0.654065461771E-02
  0.697200393226E-02  0.743173416205E-02  0.792170361781E-02  0.844389105288E-02  0.900040330009E-02
  0.959348336935E-02  0.102255190307E-01  0.108990519078E-01  0.116167871085E-01  0.123816034185E-01
  0.131965640865E-01  0.140649282274E-01  0.149901628734E-01  0.159759556999E-01  0.170262284553E-01
  0.181451511232E-01  0.193371568432E-01  0.206069576178E-01  0.219595608303E-01  0.234002865966E-01
  0.249347859720E-01  0.265690600303E-01  0.283094798284E-01  0.301628072664E-01  0.321362168439E-01
  0.342373183101E-01  0.364741801934E-01  0.388553541873E-01  0.413899003580E-01  0.440874131238E-01
  0.469580479405E-01  0.500125486069E-01  0.532622750838E-01  0.567192316926E-01  0.603960955299E-01
  0.643062449007E-01  0.684637875339E-01  0.728835882979E-01  0.775812960840E-01  0.825733694659E-01
  0.878771006799E-01  0.935106373926E-01  0.994930016424E-01  0.105844105243E+00  0.112584760834E+00
  0.119736687640E+00  0.127322510877E+00  0.135365753578E+00  0.143890819473E+00  0.152922965355E+00
  0.162488261166E+00  0.172613535841E+00  0.183326306686E+00  0.194654689809E+00  0.206627288874E+00
  0.219273059105E+00  0.232621143192E+00  0.246700675402E+00  0.261540549832E+00  0.277169148446E+00
  0.293614024104E+00  0.310901533513E+00  0.329056414655E+00  0.348101302962E+00  0.368056180262E+00
  0.388937750332E+00  0.410758734836E+00  0.433527083463E+00  0.457245092325E+00  0.481908425141E+00
  0.507505032462E+00  0.534013965289E+00  0.561404080983E+00  0.589632641388E+00  0.618643805795E+00
  0.648367024812E+00  0.678715345482E+00  0.709583643367E+00  0.740846803782E+00  0.772357882204E+00
  0.803946283176E+00  0.835416007919E+00  0.866544033522E+00  0.897078900949E+00  0.926739605336E+00
  0.955214899907E+00  0.982163144126E+00  0.100721284702E+01  0.102996407720E+01  0.104999093104E+01
  0.106684526824E+01  0.108006193773E+01  0.108916572427E+01  0.109368024329E+01  0.109313899550E+01
  0.108709875740E+01  0.107515542468E+01  0.105696233403E+01  0.103225095971E+01  0.100085370401E+01
  0.962728269377E+00  0.917982805822E+00  0.866900665483E+00  0.809963164579E+00  0.747868255696E+00
  0.681542462310E+00  0.612142847477E+00  0.541045220615E+00  0.469814292528E+00  0.400151157867E+00
  0.333813435981E+00  0.272503789931E+00  0.217723558959E+00  0.170590102817E+00  0.131619407132E+00
  0.100482401813E+00  0.760198898456E-01  0.569795590293E-01  0.422990543126E-01  0.310900617912E-01
  0.226175869084E-01  0.162799906261E-01  0.115901759068E-01  0.815820110462E-02  0.567549763913E-02
  0.390078454306E-02  0.264770115841E-02  0.177412079775E-02  0.117306208141E-02  0.765080445262E-03
  0.491999246204E-03  0.311826960911E-03  0.194702818594E-03  0.119716255156E-03  0.724541308618E-04
  0.431420961064E-04  0.252613510421E-04  0.145380742770E-04  0.821896317955E-05  0.456181840946E-05
  0.248431288585E-05  0.132661236197E-05  0.694159800268E-06  0.355670513414E-06  0.178317068159E-06
  0.874113874353E-07  0.418636948514E-07  0.195730256193E-07  0.892644104913E-08  0.396771730934E-08
  0.171743356695E-08  0.723307895839E-09  0.296134731918E-09  0.117757347864E-09  0.454379493191E-10
  0.169969055246E-10  0.615768887289E-11  0.215836884729E-11  0.731211508945E-12  0.239168756792E-12
  0.754447530120E-13  0.229255410648E-13  0.670288659003E-14  0.188331914047E-14  0.507873319159E-15
  0.131276477334E-15
 pseudo wavefunction
  0.174942712791E-03  0.180631413340E-03  0.186505096234E-03  0.192569776638E-03  0.198831665314E-03
  0.205297174983E-03  0.211972926890E-03  0.218865757588E-03  0.225982725938E-03  0.233331120335E-03
  0.240918466176E-03  0.248752533566E-03  0.256841345272E-03  0.265193184944E-03  0.273816605592E-03
  0.282720438353E-03  0.291913801525E-03  0.301406109916E-03  0.311207084474E-03  0.321326762253E-03
  0.331775506683E-03  0.342564018188E-03  0.353703345144E-03  0.365204895192E-03  0.377080446918E-03
  0.389342161921E-03  0.402002597263E-03  0.415074718331E-03  0.428571912112E-03  0.442508000906E-03
  0.456897256478E-03  0.471754414674E-03  0.487094690514E-03  0.502933793770E-03  0.519287945056E-03
  0.536173892441E-03  0.553608928596E-03  0.571610908507E-03  0.590198267758E-03  0.609390041412E-03
  0.629205883501E-03  0.649666087157E-03  0.670791605392E-03  0.692604072558E-03  0.715125826496E-03
  0.738379931418E-03  0.762390201526E-03  0.787181225393E-03  0.812778391152E-03  0.839207912490E-03
  0.866496855495E-03  0.894673166370E-03  0.923765700058E-03  0.953804249786E-03  0.984819577576E-03
  0.101684344575E-02  0.104990864946E-02  0.108404905025E-02  0.111929961077E-02  0.115569643055E-02
  0.119327678298E-02  0.123207915347E-02  0.127214327887E-02  0.131351018817E-02  0.135622224450E-02
  0.140032318852E-02  0.144585818320E-02  0.149287386009E-02  0.154141836706E-02  0.159154141760E-02
  0.164329434175E-02  0.169673013862E-02  0.175190353071E-02  0.180887101993E-02  0.186769094543E-02
  0.192842354338E-02  0.199113100864E-02  0.205587755844E-02  0.212272949814E-02  0.219175528911E-02
  0.226302561888E-02  0.233661347346E-02  0.241259421212E-02  0.249104564454E-02  0.257204811048E-02
  0.265568456204E-02  0.274204064860E-02  0.283120480452E-02  0.292326833969E-02  0.301832553301E-02
  0.311647372891E-02  0.321781343707E-02  0.332244843526E-02  0.343048587562E-02  0.354203639437E-02
  0.365721422507E-02  0.377613731557E-02  0.389892744874E-02  0.402571036720E-02  0.415661590196E-02
  0.429177810540E-02  0.443133538845E-02  0.457543066228E-02  0.472421148460E-02  0.487783021067E-02
  0.503644414923E-02  0.520021572356E-02  0.536931263765E-02  0.554390804785E-02  0.572418074009E-02
  0.591031531281E-02  0.610250236586E-02  0.630093869552E-02  0.650582749585E-02  0.671737856660E-02
  0.693580852781E-02  0.716134104140E-02  0.739420703996E-02  0.763464496296E-02  0.788290100056E-02
  0.813922934543E-02  0.840389245261E-02  0.867716130788E-02  0.895931570477E-02  0.925064453059E-02
  0.955144606165E-02  0.986202826813E-02  0.101827091287E-01  0.105138169554E-01  0.108556907291E-01
  0.112086804455E-01  0.115731474726E-01  0.119494649198E-01  0.123380180184E-01  0.127392045150E-01
  0.131534350773E-01  0.135811337127E-01  0.140227382010E-01  0.144787005405E-01  0.149494874085E-01
  0.154355806372E-01  0.159374777041E-01  0.164556922383E-01  0.169907545436E-01  0.175432121378E-01
  0.181136303093E-01  0.187025926917E-01  0.193107018568E-01  0.199385799260E-01  0.205868692019E-01
  0.212562328194E-01  0.219473554180E-01  0.226609438348E-01  0.233977278197E-01  0.241584607737E-01
  0.249439205096E-01  0.257549100373E-01  0.265922583736E-01  0.274568213770E-01  0.283494826089E-01
  0.292711542220E-01  0.302227778755E-01  0.312053256792E-01  0.322198011665E-01  0.332672402974E-01
  0.343487124923E-01  0.354653216971E-01  0.366182074810E-01  0.378085461668E-01  0.390375519960E-01
  0.403064783285E-01  0.416166188771E-01  0.429693089799E-01  0.443659269086E-01  0.458078952159E-01
  0.472966821208E-01  0.488338029347E-01  0.504208215268E-01  0.520593518310E-01  0.537510593945E-01
  0.554976629691E-01  0.573009361446E-01  0.591627090270E-01  0.610848699591E-01  0.630693672864E-01
  0.651182111674E-01  0.672334754281E-01  0.694172994618E-01  0.716718901731E-01  0.739995239667E-01
  0.764025487793E-01  0.788833861558E-01  0.814445333670E-01  0.840885655687E-01  0.868181380011E-01
  0.896359882258E-01  0.925449383985E-01  0.955478975758E-01  0.986478640520E-01  0.101847927723E+00
  0.105151272474E+00  0.108561178583E+00  0.112081025141E+00  0.115714292479E+00  0.119464564590E+00
  0.123335531550E+00  0.127330991917E+00  0.131454855111E+00  0.135711143747E+00  0.140103995924E+00
  0.144637667447E+00  0.149316533975E+00  0.154145093058E+00  0.159127966072E+00  0.164269900004E+00
  0.169575769081E+00  0.175050576199E+00  0.180699454143E+00  0.186527666546E+00  0.192540608557E+00
  0.198743807184E+00  0.205142921256E+00  0.211743740962E+00  0.218552186908E+00  0.225574308639E+00
  0.232816282548E+00  0.240284409111E+00  0.247985109361E+00  0.255924920520E+00  0.264110490681E+00
  0.272548572447E+00  0.281246015408E+00  0.290209757327E+00  0.299446813897E+00  0.308964266929E+00
  0.318769250794E+00  0.328868936950E+00  0.339270516355E+00  0.349981179569E+00  0.361008094297E+00
  0.372358380151E+00  0.384039080344E+00  0.396057130048E+00  0.408419321098E+00  0.421132262718E+00
  0.434202337912E+00  0.447635655148E+00  0.461437994929E+00  0.475614750832E+00  0.490170864566E+00
  0.505110754568E+00  0.520438237658E+00  0.536156443228E+00  0.552267719440E+00  0.568773530890E+00
  0.585674347177E+00  0.602969521841E+00  0.620657161098E+00  0.638733981861E+00  0.657195158534E+00
  0.676034158109E+00  0.695242563182E+00  0.714809882559E+00  0.734723349236E+00  0.754967705681E+00
  0.775524976513E+00  0.796374228872E+00  0.817491321045E+00  0.838848640209E+00  0.860414830521E+00
  0.882154513219E+00  0.904028000894E+00  0.925991008689E+00  0.947994365859E+00  0.969983731867E+00
  0.991899322090E+00  0.101367564916E+01  0.103524128705E+01  0.105651866616E+01  0.107742390896E+01
  0.109786671704E+01  0.111775032188E+01  0.113697151290E+01  0.115542075792E+01  0.117298243226E+01
  0.118953517379E+01  0.120495238211E+01  0.121910288020E+01  0.123185175668E+01  0.124306140553E+01
  0.125259277801E+01  0.126030685777E+01  0.126606636476E+01  0.126973768623E+01  0.127119302276E+01
  0.127031272500E+01  0.126698777970E+01  0.126112238458E+01  0.125263652705E+01  0.124146845429E+01
  0.122757689030E+01  0.121094282058E+01  0.119157062785E+01  0.116948832450E+01  0.114474659239E+01
  0.111741631106E+01  0.108758423795E+01  0.105534650403E+01  0.102079961555E+01  0.984028715846E+00
  0.945092973801E+00  0.904005144051E+00  0.860825283070E+00  0.815955179821E+00  0.769883623254E+00
  0.723082492735E+00  0.676001312101E+00  0.629062548919E+00  0.582657644834E+00  0.537143774126E+00
  0.492841301215E+00  0.450031897450E+00  0.408957280336E+00  0.369818552600E+00  0.332776140877E+00
  0.297950354659E+00  0.265422595911E+00  0.235237238960E+00  0.207404168959E+00  0.181901919693E+00
  0.158681300928E+00  0.137669363997E+00  0.118773531009E+00  0.101885711257E+00  0.868862459285E-01
  0.736475539764E-01  0.620373917410E-01  0.519216805736E-01  0.431668951960E-01  0.356420364439E-01
  0.292202323226E-01  0.237800197080E-01  0.192063566727E-01  0.153914056337E-01  0.122351148374E-01
  0.964561435884E-02  0.753943558144E-02  0.584156088573E-02  0.448531224802E-02  0.341209198333E-02
  0.257099415802E-02  0.191830979539E-02  0.141695200346E-02  0.103582821768E-02  0.749185936582E-03
  0.535955962582E-03  0.379113692380E-03  0.265074898577E-03  0.183138131414E-03  0.124981690483E-03
  0.842193252700E-04
 ae wavefunction
  0.445093498386E-02  0.458332842604E-02  0.471962698087E-02  0.485994386736E-02  0.500439545953E-02
  0.515310136647E-02  0.530618451383E-02  0.546377122683E-02  0.562599131478E-02  0.579297815699E-02
  0.596486879020E-02  0.614180399732E-02  0.632392839762E-02  0.651139053815E-02  0.670434298653E-02
  0.690294242486E-02  0.710734974485E-02  0.731773014393E-02  0.753425322250E-02  0.775709308191E-02
  0.798642842336E-02  0.822244264749E-02  0.846532395444E-02  0.871526544446E-02  0.897246521878E-02
  0.923712648057E-02  0.950945763595E-02  0.978967239469E-02  0.100779898706E-01  0.103746346812E-01
  0.106798370466E-01  0.109938328869E-01  0.113168639189E-01  0.116491777506E-01  0.119910279736E-01
  0.123426742532E-01  0.127043824164E-01  0.130764245358E-01  0.134590790103E-01  0.138526306421E-01
  0.142573707088E-01  0.146735970305E-01  0.151016140312E-01  0.155417327940E-01  0.159942711095E-01
  0.164595535164E-01  0.169379113336E-01  0.174296826836E-01  0.179352125051E-01  0.184548525553E-01
  0.189889613999E-01  0.195379043901E-01  0.201020536254E-01  0.206817879015E-01  0.212774926410E-01
  0.218895598067E-01  0.225183877950E-01  0.231643813093E-01  0.238279512098E-01  0.245095143402E-01
  0.252094933274E-01  0.259283163542E-01  0.266664169015E-01  0.274242334583E-01  0.282022091981E-01
  0.290007916176E-01  0.298204321369E-01  0.306615856571E-01  0.315247100737E-01  0.324102657419E-01
  0.333187148913E-01  0.342505209858E-01  0.352061480271E-01  0.361860597958E-01  0.371907190277E-01
  0.382205865219E-01  0.392761201746E-01  0.403577739353E-01  0.414659966822E-01  0.426012310083E-01
  0.437639119179E-01  0.449544654239E-01  0.461733070434E-01  0.474208401855E-01  0.486974544232E-01
  0.500035236471E-01  0.513394040910E-01  0.527054322251E-01  0.541019225096E-01  0.555291650009E-01
  0.569874228045E-01  0.584769293667E-01  0.599978855976E-01  0.615504568176E-01  0.631347695208E-01
  0.647509079451E-01  0.663989104439E-01  0.680787656487E-01  0.697904084172E-01  0.715337155558E-01
  0.733085013117E-01  0.751145126243E-01  0.769514241301E-01  0.788188329118E-01  0.807162529866E-01
  0.826431095247E-01  0.845987327946E-01  0.865823518264E-01  0.885930877908E-01  0.906299470885E-01
  0.926918141472E-01  0.947774439239E-01  0.968854541123E-01  0.990143170561E-01  0.101162351370E+00
  0.103327713272E+00  0.105508387639E+00  0.107702178783E+00  0.109906700971E+00  0.112119368700E+00
  0.114337386734E+00  0.116557739946E+00  0.118777182966E+00  0.120992229677E+00  0.123199142599E+00
  0.125393922182E+00  0.127572296071E+00  0.129729708381E+00  0.131861309048E+00  0.133961943311E+00
  0.136026141412E+00  0.138048108574E+00  0.140021715365E+00  0.141940488531E+00  0.143797602422E+00
  0.145585871109E+00  0.147297741344E+00  0.148925286484E+00  0.150460201552E+00  0.151893799584E+00
  0.153217009449E+00  0.154420375348E+00  0.155494058168E+00  0.156427838951E+00  0.157211124685E+00
  0.157832956687E+00  0.158282021837E+00  0.158546666940E+00  0.158614916526E+00  0.158474494382E+00
  0.158112849148E+00  0.157517184306E+00  0.156674492912E+00  0.155571597416E+00  0.154195194943E+00
  0.152531908381E+00  0.150568343662E+00  0.148291153580E+00  0.145687108513E+00  0.142743174392E+00
  0.139446598235E+00  0.135785001570E+00  0.131746482000E+00  0.127319723164E+00  0.122494113285E+00
  0.117259872430E+00  0.111608188574E+00  0.105531362451E+00  0.990229611078E-01  0.920779799709E-01
  0.846930131192E-01  0.768664313281E-01  0.685985673076E-01  0.598919073921E-01  0.507512887641E-01
  0.411841010980E-01  0.312004913036E-01  0.208135698309E-01  0.100396167700E-01 -0.110171423706E-02
 -0.125871964769E-01 -0.243898374426E-01 -0.364786955164E-01 -0.488187088695E-01 -0.613705396338E-01
 -0.740904366980E-01 -0.869301208608E-01 -0.998366965184E-01 -0.112752594546E+00 -0.125615551480E+00
 -0.138358630478E+00 -0.150910289745E+00 -0.163194504192E+00 -0.175130945998E+00 -0.186635229494E+00
 -0.197619225446E+00 -0.207991449335E+00 -0.217657527803E+00 -0.226520746880E+00 -0.234482685096E+00
 -0.241443933906E+00 -0.247304907044E+00 -0.251966739475E+00 -0.255332275457E+00 -0.257307143938E+00
 -0.257800918038E+00 -0.256728353743E+00 -0.254010701084E+00 -0.249577079168E+00 -0.243365904216E+00
 -0.235326357550E+00 -0.225419878058E+00 -0.213621661239E+00 -0.199922144443E+00 -0.184328455493E+00
 -0.166865799551E+00 -0.147578756924E+00 -0.126532462602E+00 -0.103813636724E+00 -0.795314340078E-01
 -0.538180794810E-01 -0.268292579191E-01  0.125577457560E-02  0.302343859676E-01  0.598810956075E-01
  0.899484526854E-01  0.120168278758E+00  0.150253282632E+00  0.179899055302E+00  0.208786457378E+00
  0.236584419424E+00  0.262953180231E+00  0.287547978870E+00  0.310023188022E+00  0.330036838427E+00
  0.347255459297E+00  0.361359157633E+00  0.372046868765E+00  0.379041713438E+00  0.382096388185E+00
  0.380998502168E+00  0.375575763179E+00  0.365700911514E+00  0.351296301145E+00  0.332338030341E+00
  0.308859526140E+00  0.280954488484E+00  0.248779100713E+00  0.212553414633E+00  0.172561821449E+00
  0.129152526140E+00  0.827359534498E-01  0.337820300098E-01 -0.171836906681E-01 -0.695850670302E-01
 -0.122801552443E+00 -0.176175482731E+00 -0.229020418817E+00 -0.280630482227E+00 -0.330290559093E+00
 -0.377287058024E+00 -0.420918559722E+00 -0.460505408061E+00 -0.495397632551E+00 -0.524982026661E+00
 -0.548690934927E+00 -0.566014712390E+00 -0.576515987899E+00 -0.579841592544E+00 -0.575730466838E+00
 -0.564018646446E+00 -0.544642580909E+00 -0.517641152377E+00 -0.483156205794E+00 -0.441431274291E+00
 -0.392808300702E+00 -0.337722361936E+00 -0.276694577782E+00 -0.210323480264E+00 -0.139275144961E+00
 -0.642723733337E-01  0.139168098696E-01  0.944911048736E-01  0.176628111170E+00  0.259496521619E+00
  0.342268137704E+00  0.424129511552E+00  0.504293025914E+00  0.582007233845E+00  0.656566300960E+00
  0.727318420572E+00  0.793673098442E+00  0.855107203509E+00  0.911169641207E+00  0.961484423498E+00
  0.100575185468E+01  0.104374764273E+01  0.107532010609E+01  0.110038621093E+01  0.111892760397E+01
  0.113098767288E+01  0.113666990944E+01  0.113613695535E+01  0.112960930957E+01  0.111736287749E+01
  0.109972506741E+01  0.107706955450E+01  0.104981001876E+01  0.101839318222E+01  0.983291412903E+00
  0.944995121637E+00  0.904005144051E+00  0.860825283070E+00  0.815955179821E+00  0.769883623254E+00
  0.723082492735E+00  0.676001312101E+00  0.629062548919E+00  0.582657644834E+00  0.537143774126E+00
  0.492841301215E+00  0.450031897450E+00  0.408957280336E+00  0.369818552600E+00  0.332776140877E+00
  0.297950354659E+00  0.265422595911E+00  0.235237238960E+00  0.207404168959E+00  0.181901919693E+00
  0.158681300928E+00  0.137669363997E+00  0.118773531009E+00  0.101885711257E+00  0.868862459285E-01
  0.736475539764E-01  0.620373917410E-01  0.519216805736E-01  0.431668951960E-01  0.356420364439E-01
  0.292202323226E-01  0.237800197080E-01  0.192063566727E-01  0.153914056337E-01  0.122351148374E-01
  0.964561435884E-02  0.753943558144E-02  0.584156088573E-02  0.448531224802E-02  0.341209198333E-02
  0.257099415802E-02  0.191830979539E-02  0.141695200346E-02  0.103582821768E-02  0.749185936582E-03
  0.535955962582E-03  0.379113692380E-03  0.265074898577E-03  0.183138131414E-03  0.124981690483E-03
  0.842193252700E-04
 pseudo wavefunction
  0.183162503139E-03  0.189118490762E-03  0.195268152240E-03  0.201617785362E-03  0.208173892708E-03
  0.214943188303E-03  0.221932604496E-03  0.229149299061E-03  0.236600662522E-03  0.244294325725E-03
  0.252238167651E-03  0.260440323490E-03  0.268909192962E-03  0.277653448930E-03  0.286682046273E-03
  0.296004231063E-03  0.305629550029E-03  0.315567860336E-03  0.325829339681E-03  0.336424496711E-03
  0.347364181792E-03  0.358659598112E-03  0.370322313161E-03  0.382364270576E-03  0.394797802367E-03
  0.407635641553E-03  0.420890935199E-03  0.434577257876E-03  0.448708625569E-03  0.463299510026E-03
  0.478364853579E-03  0.493920084449E-03  0.509981132541E-03  0.526564445762E-03  0.543687006861E-03
  0.561366350825E-03  0.579620582833E-03  0.598468396797E-03  0.617929094510E-03  0.638022605407E-03
  0.658769506978E-03  0.680191045842E-03  0.702309159500E-03  0.725146498807E-03  0.748726451162E-03
  0.773073164465E-03  0.798211571839E-03  0.824167417171E-03  0.850967281470E-03  0.878638610088E-03
  0.907209740832E-03  0.936709932975E-03  0.967169397226E-03  0.998619326667E-03  0.103109192869E-02
  0.106462045800E-02  0.109923925064E-02  0.113498375917E-02  0.117189058897E-02  0.120999753573E-02
  0.124934362417E-02  0.128996914795E-02  0.133191571098E-02  0.137522627004E-02  0.141994517870E-02
  0.146611823281E-02  0.151379271736E-02  0.156301745491E-02  0.161384285558E-02  0.166632096870E-02
  0.172050553607E-02  0.177645204702E-02  0.183421779521E-02  0.189386193732E-02  0.195544555363E-02
  0.201903171054E-02  0.208468552519E-02  0.215247423208E-02  0.222246725198E-02  0.229473626299E-02
  0.236935527392E-02  0.244640070011E-02  0.252595144162E-02  0.260808896409E-02  0.269289738210E-02
  0.278046354532E-02  0.287087712744E-02  0.296423071799E-02  0.306061991711E-02  0.316014343349E-02
  0.326290318538E-02  0.336900440497E-02  0.347855574614E-02  0.359166939568E-02  0.370846118814E-02
  0.382905072446E-02  0.395356149438E-02  0.408212100288E-02  0.421486090070E-02  0.435191711913E-02
  0.449343000912E-02  0.463954448502E-02  0.479041017283E-02  0.494618156344E-02  0.510701817070E-02
  0.527308469473E-02  0.544455119045E-02  0.562159324168E-02  0.580439214076E-02  0.599313507413E-02
  0.618801531387E-02  0.638923241548E-02  0.659699242203E-02  0.681150807502E-02  0.703299903201E-02
  0.726169209133E-02  0.749782142410E-02  0.774162881376E-02  0.799336390336E-02  0.825328445088E-02
  0.852165659281E-02  0.879875511629E-02  0.908486374008E-02  0.938027540457E-02  0.968529257127E-02
  0.100002275319E-01  0.103254027276E-01  0.106611510784E-01  0.110078163231E-01  0.113657533709E-01
  0.117353286634E-01  0.121169205491E-01  0.125109196695E-01  0.129177293577E-01  0.133377660506E-01
  0.137714597129E-01  0.142192542766E-01  0.146816080930E-01  0.151589944003E-01  0.156519018058E-01
  0.161608347838E-01  0.166863141893E-01  0.172288777886E-01  0.177890808059E-01  0.183674964890E-01
  0.189647166916E-01  0.195813524751E-01  0.202180347294E-01  0.208754148132E-01  0.215541652153E-01
  0.222549802363E-01  0.229785766926E-01  0.237256946420E-01  0.244970981329E-01  0.252935759768E-01
  0.261159425452E-01  0.269650385923E-01  0.278417321019E-01  0.287469191627E-01  0.296815248697E-01
  0.306465042543E-01  0.316428432427E-01  0.326715596451E-01  0.337337041741E-01  0.348303614952E-01
  0.359626513096E-01  0.371317294696E-01  0.383387891280E-01  0.395850619228E-01  0.408718191962E-01
  0.422003732520E-01  0.435720786485E-01  0.449883335306E-01  0.464505810012E-01  0.479603105317E-01
  0.495190594136E-01  0.511284142523E-01  0.527900125019E-01  0.545055440445E-01  0.562767528123E-01
  0.581054384546E-01  0.599934580499E-01  0.619427278636E-01  0.639552251518E-01  0.660329900113E-01
  0.681781272770E-01  0.703928084662E-01  0.726792737692E-01  0.750398340875E-01  0.774768731188E-01
  0.799928494880E-01  0.825902989235E-01  0.852718364785E-01  0.880401587961E-01  0.908980464161E-01
  0.938483661218E-01  0.968940733261E-01  0.100038214492E+00  0.103283929585E+00  0.106634454557E+00
  0.110093123855E+00  0.113663372943E+00  0.117348740851E+00  0.121152872719E+00  0.125079522353E+00
  0.129132554768E+00  0.133315948718E+00  0.137633799197E+00  0.142090319906E+00  0.146689845667E+00
  0.151436834770E+00  0.156335871242E+00  0.161391667013E+00  0.166609063964E+00  0.171993035831E+00
  0.177548689940E+00  0.183281268750E+00  0.189196151164E+00  0.195298853581E+00  0.201595030651E+00
  0.208090475684E+00  0.214791120678E+00  0.221703035898E+00  0.228832428970E+00  0.236185643412E+00
  0.243769156539E+00  0.251589576668E+00  0.259653639540E+00  0.267968203862E+00  0.276540245884E+00
  0.285376852882E+00  0.294485215450E+00  0.303872618449E+00  0.313546430491E+00  0.323514091790E+00
  0.333783100207E+00  0.344360995329E+00  0.355255340353E+00  0.366473701578E+00  0.378023625265E+00
  0.389912611612E+00  0.402148085567E+00  0.414737364196E+00  0.427687620272E+00  0.441005841762E+00
  0.454698786843E+00  0.468772934054E+00  0.483234427185E+00  0.498089014458E+00  0.513341981543E+00
  0.528998077928E+00  0.545061436140E+00  0.561535483288E+00  0.578422844395E+00  0.595725236966E+00
  0.613443356235E+00  0.631576750529E+00  0.650123686207E+00  0.669081001646E+00  0.688443949773E+00
  0.708206028704E+00  0.728358800111E+00  0.748891695025E+00  0.769791806913E+00  0.791043672010E+00
  0.812629037071E+00  0.834526614932E+00  0.856711828570E+00  0.879156544662E+00  0.901828798035E+00
  0.924692508910E+00  0.947707195330E+00  0.970827683841E+00  0.994003822209E+00  0.101718019879E+01
  0.104029587407E+01  0.106328413105E+01  0.108607225219E+01  0.110858133187E+01  0.113072613495E+01
  0.115241501310E+01  0.117354989239E+01  0.119402634689E+01  0.121373377478E+01  0.123255569466E+01
  0.125037018097E+01  0.126705045829E+01  0.128246567476E+01  0.129648187425E+01  0.130896318611E+01
  0.131977324852E+01  0.132877687783E+01  0.133584199033E+01  0.134084177481E+01  0.134365710340E+01
  0.134417915389E+01  0.134231219914E+01  0.133797649675E+01  0.133111118580E+01  0.132167706612E+01
  0.130965909929E+01  0.129506843071E+01  0.127794368835E+01  0.125835126892E+01  0.123638427868E+01
  0.121215975712E+01  0.118581378393E+01  0.115749405894E+01  0.112734956094E+01  0.109551694509E+01
  0.106210344379E+01  0.102716620629E+01  0.990804452068E+00  0.953522374828E+00  0.915936108661E+00
  0.878664039155E+00  0.000000000000E+00  0.000000000000E+00  0.000000000000E+00  0.000000000000E+00
  0.000000000000E+00  0.000000000000E+00  0.000000000000E+00  0.000000000000E+00  0.000000000000E+00
  0.000000000000E+00  0.000000000000E+00  0.000000000000E+00  0.000000000000E+00  0.000000000000E+00
  0.000000000000E+00  0.000000000000E+00  0.000000000000E+00  0.000000000000E+00  0.000000000000E+00
  0.000000000000E+00  0.000000000000E+00  0.000000000000E+00  0.000000000000E+00  0.000000000000E+00
  0.000000000000E+00  0.000000000000E+00  0.000000000000E+00  0.000000000000E+00  0.000000000000E+00
  0.000000000000E+00  0.000000000000E+00  0.000000000000E+00  0.000000000000E+00  0.000000000000E+00
  0.000000000000E+00  0.000000000000E+00  0.000000000000E+00  0.000000000000E+00  0.000000000000E+00
  0.000000000000E+00  0.000000000000E+00  0.000000000000E+00  0.000000000000E+00  0.000000000000E+00
  0.000000000000E+00
 ae wavefunction
  0.468803873210E-02  0.482748484688E-02  0.497104410203E-02  0.511883574778E-02  0.527098235749E-02
  0.542760991191E-02  0.558884788502E-02  0.575482933148E-02  0.592569097563E-02  0.610157330199E-02
  0.628262064735E-02  0.646898129422E-02  0.666080756585E-02  0.685825592251E-02  0.706148705921E-02
  0.727066600462E-02  0.748596222127E-02  0.770754970680E-02  0.793560709635E-02  0.817031776579E-02
  0.841186993587E-02  0.866045677716E-02  0.891627651533E-02  0.917953253730E-02  0.945043349728E-02
  0.972919342326E-02  0.100160318233E-01  0.103111737918E-01  0.106148501149E-01  0.109272973757E-01
  0.112487580582E-01  0.115794806504E-01  0.119197197456E-01  0.122697361421E-01  0.126297969403E-01
  0.130001756386E-01  0.133811522246E-01  0.137730132645E-01  0.141760519879E-01  0.145905683688E-01
  0.150168692013E-01  0.154552681709E-01  0.159060859186E-01  0.163696500992E-01  0.168462954324E-01
  0.173363637457E-01  0.178402040076E-01  0.183581723529E-01  0.188906320957E-01  0.194379537319E-01
  0.200005149284E-01  0.205787004993E-01  0.211729023665E-01  0.217835195046E-01  0.224109578685E-01
  0.230556303014E-01  0.237179564231E-01  0.243983624963E-01  0.250972812687E-01  0.258151517898E-01
  0.265524192010E-01  0.273095344952E-01  0.280869542459E-01  0.288851403015E-01  0.297045594445E-01
  0.305456830110E-01  0.314089864693E-01  0.322949489545E-01  0.332040527558E-01  0.341367827528E-01
  0.350936257997E-01  0.360750700509E-01  0.370816042271E-01  0.381137168165E-01  0.391718952069E-01
  0.402566247462E-01  0.413683877249E-01  0.425076622771E-01  0.436749211950E-01  0.448706306516E-01
  0.460952488264E-01  0.473492244293E-01  0.486329951154E-01  0.499469857866E-01  0.512916067725E-01
  0.526672518847E-01  0.540742963378E-01  0.555130945304E-01  0.569839776787E-01  0.584872512957E-01
  0.600231925079E-01  0.615920472032E-01  0.631940270006E-01  0.648293060338E-01  0.664980175423E-01
  0.682002502591E-01  0.699360445888E-01  0.717053885664E-01  0.735082135885E-01  0.753443899092E-01
  0.772137218913E-01  0.791159430054E-01  0.810507105680E-01  0.830176002116E-01  0.850161000791E-01
  0.870456047349E-01  0.891054087868E-01  0.911947002127E-01  0.933125533867E-01  0.954579218002E-01
  0.976296304757E-01  0.998263680693E-01  0.102046678664E+00  0.104288953250E+00  0.106551420904E+00
  0.108832139656E+00  0.111128987066E+00  0.113439650519E+00  0.115761617229E+00  0.118092164001E+00
  0.120428346741E+00  0.122766989749E+00  0.125104674820E+00  0.127437730185E+00  0.129762219321E+00
  0.132073929678E+00  0.134368361376E+00  0.136640715901E+00  0.138885884896E+00  0.141098439079E+00
  0.143272617396E+00  0.145402316465E+00  0.147481080426E+00  0.149502091289E+00  0.151458159897E+00
  0.153341717633E+00  0.155144808994E+00  0.156859085201E+00  0.158475798990E+00  0.159985800769E+00
  0.161379536323E+00  0.162647046277E+00  0.163777967535E+00  0.164761536923E+00  0.165586597297E+00
  0.166241606364E+00  0.166714648519E+00  0.166993449971E+00  0.167065397489E+00  0.166917561081E+00
  0.166536720954E+00  0.165909399097E+00  0.165021895861E+00  0.163860331903E+00  0.162410695870E+00
  0.160658898214E+00  0.158590831515E+00  0.156192437700E+00  0.153449782528E+00  0.150349137704E+00
  0.146877070973E+00  0.143020544504E+00  0.138767021870E+00  0.134104583857E+00  0.129022053312E+00
  0.123509129187E+00  0.117556529832E+00  0.111156145560E+00  0.104301200365E+00  0.969864226112E-01
  0.892082243672E-01  0.809648889167E-01  0.722567658521E-01  0.630864729589E-01  0.534591039294E-01
  0.433824407296E-01  0.328671692319E-01  0.219270964888E-01  0.105793677926E-01 -0.115531857227E-02
 -0.132525012017E-01 -0.256837526057E-01 -0.384164861468E-01 -0.514137758466E-01 -0.646341922757E-01
 -0.780316580601E-01 -0.915553269327E-01 -0.105149490730E+00 -0.118753519241E+00 -0.132301838285E+00
 -0.145723951789E+00 -0.158944513853E+00 -0.171883456870E+00 -0.184456181685E+00 -0.196573815489E+00
 -0.208143542790E+00 -0.219069014321E+00 -0.229250838249E+00 -0.238587157506E+00 -0.246974316517E+00
 -0.254307619851E+00 -0.260482184530E+00 -0.265393886674E+00 -0.268940401973E+00 -0.271022338124E+00
 -0.271544455796E+00 -0.270416972981E+00 -0.267556945684E+00 -0.262889715805E+00 -0.256350414838E+00
 -0.247885509599E+00 -0.237454373722E+00 -0.225030866044E+00 -0.210604894436E+00 -0.194183941053E+00
 -0.175794522523E+00 -0.155483556337E+00 -0.133319602689E+00 -0.109393949328E+00 -0.838215057767E-01
 -0.567414725299E-01 -0.283177509232E-01  0.126093954921E-02  0.317812671110E-01  0.630058430281E-01
  0.946741465836E-01  0.126503833302E+00  0.158192435109E+00  0.189419460506E+00  0.219848907797E+00
  0.249132212868E+00  0.276911657788E+00  0.302824256951E+00  0.326506107512E+00  0.347597151317E+00
  0.365746269151E+00  0.380616626118E+00  0.391891196907E+00  0.399278402792E+00  0.402517783278E+00
  0.401385610961E+00  0.395700347210E+00  0.385327832036E+00  0.370186102353E+00  0.350249735681E+00
  0.325553618752E+00  0.296196042006E+00  0.262341021921E+00  0.224219754702E+00  0.182131108211E+00
  0.136441065554E+00  0.875810449864E-01  0.360450379977E-01 -0.176144691805E-01 -0.727917974024E-01
 -0.128834578734E+00 -0.185051420950E+00 -0.240720680035E+00 -0.295100274955E+00 -0.347438413681E+00
 -0.396984899292E+00 -0.443002319143E+00 -0.484776116223E+00 -0.521622899112E+00 -0.552897856937E+00
 -0.578003967237E+00 -0.596405067340E+00 -0.607640825829E+00 -0.611339256507E+00 -0.607224997074E+00
 -0.595124509773E+00 -0.574969526144E+00 -0.546799124054E+00 -0.510760239799E+00 -0.467106283063E+00
 -0.416193645342E+00 -0.358476109075E+00 -0.294497348860E+00 -0.224881815908E+00 -0.150324323648E+00
 -0.715786394215E-01  0.105546391479E-01  0.952406707462E-01  0.181623188450E+00  0.268837332166E+00
  0.356022286568E+00  0.442333520468E+00  0.526954429717E+00  0.609107197097E+00  0.688062705187E+00
  0.763149367282E+00  0.833760769675E+00  0.899362018629E+00  0.959494643767E+00  0.101377982243E+01
  0.106191963007E+01  0.110369611479E+01  0.113896837183E+01  0.116766839123E+01  0.118979691292E+01
  0.120542039488E+01  0.121466940911E+01  0.121773783594E+01  0.121488179643E+01  0.120641746859E+01
  0.119271748622E+01  0.117420606050E+01  0.115135316736E+01  0.112466816951E+01  0.109469318748E+01
  0.106199649733E+01  0.102716620629E+01  0.990804452068E+00  0.953522374828E+00  0.915936108661E+00
  0.878664039155E+00  0.000000000000E+00  0.000000000000E+00  0.000000000000E+00  0.000000000000E+00
  0.000000000000E+00  0.000000000000E+00  0.000000000000E+00  0.000000000000E+00  0.000000000000E+00
  0.000000000000E+00  0.000000000000E+00  0.000000000000E+00  0.000000000000E+00  0.000000000000E+00
  0.000000000000E+00  0.000000000000E+00  0.000000000000E+00  0.000000000000E+00  0.000000000000E+00
  0.000000000000E+00  0.000000000000E+00  0.000000000000E+00  0.000000000000E+00  0.000000000000E+00
  0.000000000000E+00  0.000000000000E+00  0.000000000000E+00  0.000000000000E+00  0.000000000000E+00
  0.000000000000E+00  0.000000000000E+00  0.000000000000E+00  0.000000000000E+00  0.000000000000E+00
  0.000000000000E+00  0.000000000000E+00  0.000000000000E+00  0.000000000000E+00  0.000000000000E+00
  0.000000000000E+00  0.000000000000E+00  0.000000000000E+00  0.000000000000E+00  0.000000000000E+00
  0.000000000000E+00
 pseudo wavefunction
  0.104165177368E-07  0.111049703776E-07  0.118389245044E-07  0.126213874196E-07  0.134555651852E-07
  0.143448757597E-07  0.152929630026E-07  0.163037116048E-07  0.173812630058E-07  0.185300323625E-07
  0.197547266405E-07  0.210603638997E-07  0.224522938557E-07  0.239362197997E-07  0.255182219669E-07
  0.272047824498E-07  0.290028117582E-07  0.309196771336E-07  0.329632327365E-07  0.351418518274E-07
  0.374644610756E-07  0.399405771356E-07  0.425803456400E-07  0.453945827707E-07  0.483948195768E-07
  0.515933492221E-07  0.550032773549E-07  0.586385758070E-07  0.625141398420E-07  0.666458491869E-07
  0.710506330979E-07  0.757465397260E-07  0.807528100674E-07  0.860899568017E-07  0.917798483404E-07
  0.978457984301E-07  0.104312661678E-06  0.111206935393E-06  0.118556868153E-06  0.126392575549E-06
  0.134746163588E-06  0.143651860235E-06  0.153146155664E-06  0.163267951771E-06  0.174058721569E-06
  0.185562679121E-06  0.197826960703E-06  0.210901817936E-06  0.224840823693E-06  0.239701091599E-06
  0.255543510057E-06  0.272432991724E-06  0.290438739489E-06  0.309634530021E-06  0.330099016059E-06
  0.351916048689E-06  0.375175020906E-06  0.399971233897E-06  0.426406287526E-06  0.454588496624E-06
  0.484633334803E-06  0.516663907585E-06  0.550811456823E-06  0.587215898442E-06  0.626026395727E-06
  0.667401970504E-06  0.711512154712E-06  0.758537685034E-06  0.808671243446E-06  0.862118246706E-06
  0.919097688019E-06  0.979843034336E-06  0.104460318295E-05  0.111364348131E-05  0.118724681427E-05
  0.126571476313E-05  0.134936884135E-05  0.143855181191E-05  0.153362909169E-05  0.163499024872E-05
  0.174305059843E-05  0.185825290523E-05  0.198106919677E-05  0.211200269789E-05  0.225158989259E-05
  0.240040272210E-05  0.255905092833E-05  0.272818455218E-05  0.290849659692E-05  0.310072586764E-05
  0.330565999837E-05  0.352413867918E-05  0.375705709666E-05  0.400536960173E-05  0.427009361980E-05
  0.455231381950E-05  0.485318655672E-05  0.517394461252E-05  0.551590224406E-05  0.588046056937E-05
  0.626911330800E-05  0.668345290101E-05  0.712517703545E-05  0.759609560004E-05  0.809813810046E-05
  0.863336156474E-05  0.920395897107E-05  0.981226823254E-05  0.104607817757E-04  0.111521567520E-04
  0.118892259240E-04  0.126750092716E-04  0.135127263638E-04  0.144058095498E-04  0.153579180202E-04
  0.163729527988E-04  0.174550727235E-04  0.186087114846E-04  0.198385957880E-04  0.211497647193E-04
  0.225475903866E-04  0.240377999279E-04  0.256264989724E-04  0.273201966517E-04  0.291258322639E-04
  0.310508036992E-04  0.331029977434E-04  0.352908223837E-04  0.376232412483E-04  0.401098103219E-04
  0.427607170856E-04  0.455868222437E-04  0.485997042054E-04  0.518117065056E-04  0.552359883574E-04
  0.588865785442E-04  0.627784328700E-04  0.669274954053E-04  0.713507637759E-04  0.760663587650E-04
  0.810935985096E-04  0.864530775970E-04  0.921667513828E-04  0.982580258761E-04  0.104751853558E-03
  0.111674835526E-03  0.119055330378E-03  0.126923570283E-03  0.135311784716E-03  0.144254332350E-03
  0.153787841656E-03  0.163951360773E-03  0.174786517272E-03  0.186337688445E-03  0.198652182837E-03
  0.211780433733E-03  0.225776205415E-03  0.240696813002E-03  0.256603356782E-03  0.273560971988E-03
  0.291639095018E-03  0.310911747199E-03  0.331457837224E-03  0.353361483511E-03  0.376712357765E-03
  0.401606051147E-03  0.428144464533E-03  0.456436224420E-03  0.486597126183E-03  0.518750606444E-03
  0.553028246470E-03  0.589570308623E-03  0.628526308003E-03  0.670055621594E-03  0.714328137338E-03
  0.761524945738E-03  0.811839076752E-03  0.865476284905E-03  0.922655885749E-03  0.983611646993E-03
  0.104859273781E-02  0.111786474013E-02  0.119171072578E-02  0.127043240387E-02  0.135435134283E-02
  0.144381027180E-02  0.153917446660E-02  0.164083322558E-02  0.174920144101E-02  0.186472127215E-02
  0.198786392632E-02  0.211913155493E-02  0.225905927140E-02  0.240821729895E-02  0.256721325593E-02
  0.273669458761E-02  0.291735115313E-02  0.310991797734E-02  0.331517817752E-02  0.353396607554E-02
  0.376717050674E-02  0.401573833718E-02  0.428067820183E-02  0.456306447646E-02  0.486404149712E-02
  0.518482804146E-02  0.552672208679E-02  0.589110586075E-02  0.627945120073E-02  0.669332523927E-02
  0.713439643302E-02  0.760444095375E-02  0.810534946028E-02  0.863913427101E-02  0.920793695723E-02
  0.981403637777E-02  0.104598571761E-01  0.111479787609E-01  0.118811447928E-01  0.126622731966E-01
  0.134944667233E-01  0.143810240802E-01  0.153254516521E-01  0.163314758309E-01  0.174030559734E-01
  0.185443980039E-01  0.197599686752E-01  0.210545105005E-01  0.224330573650E-01  0.239009508208E-01
  0.254638570650E-01  0.271277845958E-01  0.288991025306E-01  0.307845595679E-01  0.327913035588E-01
  0.349269016478E-01  0.371993609261E-01  0.396171495267E-01  0.421892180736E-01  0.449250213759E-01
  0.478345402360E-01  0.509283032129E-01  0.542174081546E-01  0.577135432762E-01  0.614290075242E-01
  0.653767299241E-01  0.695702875578E-01  0.740239217658E-01  0.787525521052E-01  0.837717875299E-01
  0.890979341812E-01  0.947479990975E-01  0.100739689059E+00  0.107091403681E+00  0.113822221773E+00
  0.120951879843E+00  0.128500741522E+00  0.136489756543E+00  0.144940407750E+00  0.153874644504E+00
  0.163314800654E+00  0.173283495122E+00  0.183803512985E+00  0.194897664777E+00  0.206588621624E+00
  0.218898723662E+00  0.231849759143E+00  0.245462711519E+00  0.259757471830E+00  0.274752513729E+00
  0.290464528630E+00  0.306908018694E+00  0.324094845688E+00  0.342033734296E+00  0.360729729095E+00
  0.380183605328E+00  0.400391234722E+00  0.421342909034E+00  0.443022625728E+00  0.465407342290E+00
  0.488466208173E+00  0.512159786234E+00  0.536439278866E+00  0.561245777716E+00  0.586509560013E+00
  0.612149458907E+00  0.638072339808E+00  0.664172719305E+00  0.690332567536E+00  0.716421338574E+00
  0.742296275955E+00  0.767803041338E+00  0.792776712635E+00  0.817043192920E+00  0.840421061871E+00
  0.862723886224E+00  0.883762983338E+00  0.903350601103E+00  0.921303436757E+00  0.937446365608E+00
  0.951616187599E+00  0.963665125367E+00  0.973463723391E+00  0.980902707343E+00  0.985893271617E+00
  0.988365180191E+00  0.988262004427E+00  0.985532798752E+00  0.980119554167E+00  0.971939898168E+00
  0.960864760445E+00  0.946686997850E+00  0.929216165815E+00  0.908607725927E+00  0.885134529191E+00
  0.859082786960E+00  0.830748562554E+00  0.800434383750E+00  0.768446003697E+00  0.735089290846E+00
  0.700667218501E+00  0.665476908215E+00  0.629806682436E+00  0.593933110841E+00  0.558118078687E+00
  0.522605934854E+00  0.487620928474E+00  0.453365009721E+00  0.420016240002E+00  0.387727914714E+00
  0.356628468359E+00  0.326822144788E+00  0.298390336861E+00  0.271393438161E+00  0.245873012003E+00
  0.221854071768E+00  0.199347280790E+00  0.178350916672E+00  0.158852499514E+00  0.140830048551E+00
  0.124252996756E+00  0.109082846178E+00  0.952736780885E-01  0.827726371439E-01  0.715204898843E-01
  0.614523233223E-01  0.524984092300E-01  0.445852232651E-01  0.376365810198E-01  0.315748375236E-01
  0.263220918456E-01  0.218013418140E-01  0.179375425691E-01  0.146585340765E-01  0.118958147913E-01
  0.958515001891E-02  0.766701336369E-02  0.608686762619E-02  0.479529752968E-02  0.374801084124E-02
  0.290572700067E-02
 ae wavefunction
 -0.117628442400E-04 -0.124363582501E-04 -0.131467322865E-04 -0.138960847760E-04 -0.146866518212E-04
 -0.155207940509E-04 -0.164010038619E-04 -0.173299130737E-04 -0.183103010211E-04 -0.193451031120E-04
 -0.204374198765E-04 -0.215905265383E-04 -0.228078831380E-04 -0.240931452430E-04 -0.254501752778E-04
 -0.268830545121E-04 -0.283960957464E-04 -0.299938567364E-04 -0.316811544005E-04 -0.334630798570E-04
 -0.353450143415E-04 -0.373326460540E-04 -0.394319879977E-04 -0.416493968595E-04 -0.439915930032E-04
 -0.464656816356E-04 -0.490791752184E-04 -0.518400171992E-04 -0.547566071400E-04 -0.578378273264E-04
 -0.610930709460E-04 -0.645322719284E-04 -0.681659365456E-04 -0.720051768786E-04 -0.760617462580E-04
 -0.803480767995E-04 -0.848773191536E-04 -0.896633846053E-04 -0.947209896586E-04 -0.100065703255E-03
 -0.105713996782E-03 -0.111683297030E-03 -0.117992042281E-03 -0.124659741705E-03 -0.131707038259E-03
 -0.139155775299E-03 -0.147029067113E-03 -0.155351373614E-03 -0.164148579425E-03 -0.173448077619E-03
 -0.183278858378E-03 -0.193671602853E-03 -0.204658782533E-03 -0.216274764431E-03 -0.228555922423E-03
 -0.241540755082E-03 -0.255270010392E-03 -0.269786817713E-03 -0.285136827414E-03 -0.301368358601E-03
 -0.318532555390E-03 -0.336683552192E-03 -0.355878648527E-03 -0.376178493858E-03 -0.397647283011E-03
 -0.420352962752E-03 -0.444367450112E-03 -0.469766863083E-03 -0.496631764356E-03 -0.525047418761E-03
 -0.555104065144E-03 -0.586897203403E-03 -0.620527897472E-03 -0.656103095046E-03 -0.693735964895E-03
 -0.733546252614E-03 -0.775660655728E-03 -0.820213219067E-03 -0.867345751380E-03 -0.917208264164E-03
 -0.969959433751E-03 -0.102576708767E-02 -0.108480871639E-02 -0.114727201152E-02 -0.121335543155E-02
 -0.128326879644E-02 -0.135723391190E-02 -0.143548522492E-02 -0.151827051134E-02 -0.160585159695E-02
 -0.169850511315E-02 -0.179652328826E-02 -0.190021477581E-02 -0.200990552082E-02 -0.212593966508E-02
 -0.224868049268E-02 -0.237851141649E-02 -0.251583700667E-02 -0.266108406192E-02 -0.281470272425E-02
 -0.297716763767E-02 -0.314897915134E-02 -0.333066456736E-02 -0.352277943322E-02 -0.372590887868E-02
 -0.394066899667E-02 -0.416770826727E-02 -0.440770902393E-02 -0.466138896007E-02 -0.492950267442E-02
 -0.521284325252E-02 -0.551224388148E-02 -0.582857949441E-02 -0.616276844040E-02 -0.651577417493E-02
 -0.688860696516E-02 -0.728232560336E-02 -0.769803912081E-02 -0.813690849365E-02 -0.860014833066E-02
 -0.908902853203E-02 -0.960487590649E-02 -0.101490757328E-01 -0.107230732500E-01 -0.113283750592E-01
 -0.119665504173E-01 -0.126392324014E-01 -0.133481189204E-01 -0.140949735484E-01 -0.148816261500E-01
 -0.157099732689E-01 -0.165819782427E-01 -0.174996710101E-01 -0.184651475680E-01 -0.194805690362E-01
 -0.205481602826E-01 -0.216702080574E-01 -0.228490585828E-01 -0.240871145390E-01 -0.253868313837E-01
 -0.267507129389E-01 -0.281813061740E-01 -0.296811951080E-01 -0.312529937538E-01 -0.328993380180E-01
 -0.346228764693E-01 -0.364262598825E-01 -0.383121294619E-01 -0.402831036447E-01 -0.423417633805E-01
 -0.444906357817E-01 -0.467321760367E-01 -0.490687474769E-01 -0.515025996868E-01 -0.540358445489E-01
 -0.566704301156E-01 -0.594081122017E-01 -0.622504236009E-01 -0.651986408294E-01 -0.682537483134E-01
 -0.714163999463E-01 -0.746868779538E-01 -0.780650490235E-01 -0.815503176721E-01 -0.851415768501E-01
 -0.888371558067E-01 -0.926347652713E-01 -0.965314400416E-01 -0.100523479111E+00 -0.104606383514E+00
 -0.108774792107E+00 -0.113022415594E+00 -0.117341969112E+00 -0.121725103818E+00 -0.126162337954E+00
 -0.130642987943E+00 -0.135155100171E+00 -0.139685384139E+00 -0.144219147794E+00 -0.148740235858E+00
 -0.153230972081E+00 -0.157672106387E+00 -0.162042767992E+00 -0.166320425660E+00 -0.170480856455E+00
 -0.174498124571E+00 -0.178344572048E+00 -0.181990823477E+00 -0.185405807034E+00 -0.188556794307E+00
 -0.191409461478E+00 -0.193927974336E+00 -0.196075099524E+00 -0.197812344177E+00 -0.199100125922E+00
 -0.199897974952E+00 -0.200164769663E+00 -0.199859007193E+00 -0.198939109983E+00 -0.197363769370E+00
 -0.195092326905E+00 -0.192085193802E+00 -0.188304308491E+00 -0.183713631716E+00 -0.178279678070E+00
 -0.171972082163E+00 -0.164764196875E+00 -0.156633720330E+00 -0.147563347281E+00 -0.137541439633E+00
 -0.126562709755E+00 -0.114628909140E+00 -0.101749513810E+00 -0.879423967459E-01 -0.732344764548E-01
 -0.576623297376E-01 -0.412727557081E-01 -0.241232772317E-01 -0.628256522208E-02  0.121692292946E-01
  0.311402506970E-01  0.505268370471E-01  0.702135555309E-01  0.900733878349E-01  0.109968075671E+00
  0.129748633485E+00  0.149256032569E+00  0.168322059961E+00  0.186770358037E+00  0.204417656942E+00
  0.221075219462E+00  0.236550521253E+00  0.250649181170E+00  0.263177134420E+00  0.273943015420E+00
  0.282760704240E+00  0.289451995557E+00  0.293849360483E+00  0.295798775771E+00  0.295162589337E+00
  0.291822381715E+00  0.285681776366E+00  0.276669149529E+00  0.264740191129E+00  0.249880269714E+00
  0.232106554917E+00  0.211469850272E+00  0.188056087574E+00  0.161987432342E+00  0.133422948847E+00
  0.102558773724E+00  0.696277503192E-01  0.348984824114E-01 -0.132622372396E-02 -0.387115469225E-01
 -0.768934735082E-01 -0.115482251230E+00 -0.154066470348E+00 -0.192217764905E+00 -0.229496090493E+00
 -0.265455405819E+00 -0.299649336047E+00 -0.331636170285E+00 -0.360982753961E+00 -0.387267853143E+00
 -0.410086877370E+00 -0.429059544265E+00 -0.443839312019E+00 -0.454121604315E+00 -0.459649521636E+00
 -0.460217801705E+00 -0.455675969211E+00 -0.445930976248E+00 -0.430949202263E+00 -0.410757553308E+00
 -0.385443457230E+00 -0.355153688159E+00 -0.320092080652E+00 -0.280516268076E+00 -0.236733603634E+00
 -0.189096417037E+00 -0.137996743471E+00 -0.838606444332E-01 -0.271422263242E-01  0.316825461809E-01
  0.921221486817E-01  0.153675814070E+00  0.215839772726E+00  0.278113320622E+00  0.340004625305E+00
  0.401036190081E+00  0.460749907843E+00  0.518711631603E+00  0.574515155845E+00  0.627785433496E+00
  0.678180787975E+00  0.725393904477E+00  0.769151607870E+00  0.809213850545E+00  0.845372721770E+00
  0.877452309684E+00  0.905309768226E+00  0.928837256570E+00  0.947964016255E+00  0.962657893009E+00
  0.972925949424E+00  0.978814125936E+00  0.980406071755E+00  0.977821304746E+00  0.971212830143E+00
  0.960764327333E+00  0.946686997850E+00  0.929216165815E+00  0.908607725927E+00  0.885134529191E+00
  0.859082786960E+00  0.830748562554E+00  0.800434383750E+00  0.768446003697E+00  0.735089290846E+00
  0.700667218501E+00  0.665476908215E+00  0.629806682436E+00  0.593933110841E+00  0.558118078687E+00
  0.522605934854E+00  0.487620928474E+00  0.453365009721E+00  0.420016240002E+00  0.387727914714E+00
  0.356628468359E+00  0.326822144788E+00  0.298390336861E+00  0.271393438161E+00  0.245873012003E+00
  0.221854071768E+00  0.199347280790E+00  0.178350916672E+00  0.158852499514E+00  0.140830048551E+00
  0.124252996756E+00  0.109082846178E+00  0.952736780885E-01  0.827726371439E-01  0.715204898843E-01
  0.614523233223E-01  0.524984092300E-01  0.445852232651E-01  0.376365810198E-01  0.315748375236E-01
  0.263220918456E-01  0.218013418140E-01  0.179375425691E-01  0.146585340765E-01  0.118958147913E-01
  0.958515001891E-02  0.766701336369E-02  0.608686762619E-02  0.479529752968E-02  0.374801084124E-02
  0.290572700067E-02
 pseudo wavefunction
  0.142170524161E-07  0.151566915092E-07  0.161584336034E-07  0.172263832348E-07  0.183649162183E-07
  0.195786975769E-07  0.208727006561E-07  0.222522275016E-07  0.237229305843E-07  0.252908359600E-07
  0.269623679614E-07  0.287443755205E-07  0.306441602316E-07  0.326695062689E-07  0.348287122814E-07
  0.371306253955E-07  0.395846774655E-07  0.422009237194E-07  0.449900839593E-07  0.479635864847E-07
  0.511336149187E-07  0.545131581293E-07  0.581160634496E-07  0.619570934162E-07  0.660519862571E-07
  0.704175203770E-07  0.750715831059E-07  0.800332439899E-07  0.853228329267E-07  0.909620234659E-07
  0.969739216134E-07  0.103383160506E-06  0.110216001343E-06  0.117500440990E-06  0.125266326691E-06
  0.133545478365E-06  0.142371818987E-06  0.151781513580E-06  0.161813117400E-06  0.172507733911E-06
  0.183909183205E-06  0.196064181542E-06  0.209022532777E-06  0.222837332415E-06  0.237565185170E-06
  0.253266436895E-06  0.270005421842E-06  0.287850726268E-06  0.306875469453E-06  0.327157603305E-06
  0.348780231757E-06  0.371831951274E-06  0.396407213868E-06  0.422606714107E-06  0.450537801697E-06
  0.480314921337E-06  0.512060081641E-06  0.545903355053E-06  0.581983410811E-06  0.620448083117E-06
  0.661454976879E-06  0.705172113475E-06  0.751778619198E-06  0.801465459208E-06  0.854436219985E-06
  0.910907943502E-06  0.971112016525E-06  0.103529511869E-05  0.110372023324E-05  0.117666772457E-05
  0.125443648697E-05  0.133734516932E-05  0.142573348070E-05  0.151996358230E-05  0.162042157133E-05
  0.172751906297E-05  0.184169487696E-05  0.196341683552E-05  0.209318368026E-05  0.223152711561E-05
  0.237901398746E-05  0.253624860570E-05  0.270387522025E-05  0.288258066078E-05  0.307309715087E-05
  0.327620530816E-05  0.349273734278E-05  0.372358046715E-05  0.396968053118E-05  0.423204589767E-05
  0.451175157386E-05  0.480994361604E-05  0.512784382524E-05  0.546675475323E-05  0.582806503947E-05
  0.621325510061E-05  0.662390319618E-05  0.706169189498E-05  0.752841496895E-05  0.802598474260E-05
  0.855643992811E-05  0.912195397828E-05  0.972484399151E-05  0.103675802052E-04  0.110527961167E-04
  0.117832992727E-04  0.125620827724E-04  0.133923375302E-04  0.142774653486E-04  0.152210928559E-04
  0.162270863645E-04  0.172995677102E-04  0.184429311401E-04  0.196618613145E-04  0.209613524995E-04
  0.223467290281E-04  0.238236671119E-04  0.253982180961E-04  0.270768332490E-04  0.288663901916E-04
  0.307742210716E-04  0.328081426005E-04  0.349764880744E-04  0.372881415108E-04  0.397525740411E-04
  0.423798827067E-04  0.451808318192E-04  0.481668970526E-04  0.513503124481E-04  0.547441205251E-04
  0.583622257013E-04  0.622194512425E-04  0.663315999739E-04  0.707155190018E-04  0.753891687098E-04
  0.803716963122E-04  0.856835142656E-04  0.913463838583E-04  0.973835043201E-04  0.103819607817E-03
  0.110681060716E-03  0.117995971540E-03  0.125794306049E-03  0.134108009913E-03  0.142971139493E-03
  0.152420001248E-03  0.162493300339E-03  0.173232299053E-03  0.184680985672E-03  0.196886254481E-03
  0.209898097663E-03  0.223769809847E-03  0.238558206145E-03  0.254323854573E-03  0.271131323797E-03
  0.289049447217E-03  0.308151604446E-03  0.328516021361E-03  0.350226089910E-03  0.373370708997E-03
  0.398044647820E-03  0.424348933135E-03  0.452391262019E-03  0.482286441805E-03  0.514156858957E-03
  0.548132978807E-03  0.584353878139E-03  0.622967812802E-03  0.664132822623E-03  0.708017376052E-03
  0.754801057156E-03  0.804675297699E-03  0.857844157254E-03  0.914525154484E-03  0.974950152899E-03
  0.103936630465E-02  0.110803705611E-02  0.118124321924E-02  0.125928411303E-02  0.134247877951E-02
  0.143116727911E-02  0.152571207062E-02  0.162649948099E-02  0.173394127093E-02  0.184847630223E-02
  0.197057231360E-02  0.210072781161E-02  0.223947408430E-02  0.238737734515E-02  0.254504101568E-02
  0.271310815533E-02  0.289226404806E-02  0.308323895528E-02  0.328681104568E-02  0.350380951276E-02
  0.373511789186E-02  0.398167758882E-02  0.424449163332E-02  0.452462867059E-02  0.482322720579E-02
  0.514150011656E-02  0.548073944931E-02  0.584232151657E-02  0.622771231269E-02  0.663847326669E-02
  0.707626735158E-02  0.754286557062E-02  0.804015384165E-02  0.857014030179E-02  0.913496305553E-02
  0.973689839026E-02  0.103783694840E-01  0.110619556310E-01  0.117904020122E-01  0.125666300366E-01
  0.133937482826E-01  0.142750640669E-01  0.152140956697E-01  0.162145852453E-01  0.172805124470E-01
  0.184161087939E-01  0.196258728099E-01  0.209145859587E-01  0.222873294041E-01  0.237495016161E-01
  0.253068368471E-01  0.269654244947E-01  0.287317293666E-01  0.306126128568E-01  0.326153550373E-01
  0.347476776625E-01  0.370177680745E-01  0.394343039885E-01  0.420064791246E-01  0.447440296410E-01
  0.476572613046E-01  0.507570773183E-01  0.540550067037E-01  0.575632331102E-01  0.612946238976E-01
  0.652627593015E-01  0.694819614592E-01  0.739673230271E-01  0.787347350762E-01  0.838009138959E-01
  0.891834262774E-01  0.949007127777E-01  0.100972108390E+00  0.107417859958E+00  0.114259139584E+00
  0.121518053163E+00  0.129217643067E+00  0.137381883875E+00  0.146035669901E+00  0.155204793123E+00
  0.164915909939E+00  0.175196495020E+00  0.186074780321E+00  0.197579677106E+00  0.209740678664E+00
  0.222587741131E+00  0.236151139637E+00  0.250461296783E+00  0.265548580195E+00  0.281443065744E+00
  0.298174262805E+00  0.315770797786E+00  0.334260052054E+00  0.353667750335E+00  0.374017495699E+00
  0.395330247405E+00  0.417623738118E+00  0.440911827471E+00  0.465203789596E+00  0.490503533062E+00
  0.516808752898E+00  0.544110015781E+00  0.572389781409E+00  0.601621365308E+00  0.631767851150E+00
  0.662780963910E+00  0.694599919067E+00  0.727150267441E+00  0.760342760250E+00  0.794072264446E+00
  0.828216764290E+00  0.862636491300E+00  0.897173230886E+00  0.931649859847E+00  0.965870173997E+00
  0.999619068844E+00  0.103266313774E+01  0.106475175027E+01  0.109561866753E+01  0.112498423945E+01
  0.115255821007E+01  0.117804312913E+01  0.120113832981E+01  0.122154438208E+01  0.123896786757E+01
  0.125312624495E+01  0.126375248491E+01  0.127059905394E+01  0.127344072145E+01  0.127207556274E+01
  0.126632344448E+01  0.125602122700E+01  0.124101392158E+01  0.122114113163E+01  0.119621831879E+01
  0.116601280852E+01  0.113021502597E+01  0.108853598562E+01  0.104112387425E+01  0.988260595971E+00
  0.930239981498E+00  0.000000000000E+00  0.000000000000E+00  0.000000000000E+00  0.000000000000E+00
  0.000000000000E+00  0.000000000000E+00  0.000000000000E+00  0.000000000000E+00  0.000000000000E+00
  0.000000000000E+00  0.000000000000E+00  0.000000000000E+00  0.000000000000E+00  0.000000000000E+00
  0.000000000000E+00  0.000000000000E+00  0.000000000000E+00  0.000000000000E+00  0.000000000000E+00
  0.000000000000E+00  0.000000000000E+00  0.000000000000E+00  0.000000000000E+00  0.000000000000E+00
  0.000000000000E+00  0.000000000000E+00  0.000000000000E+00  0.000000000000E+00  0.000000000000E+00
  0.000000000000E+00  0.000000000000E+00  0.000000000000E+00  0.000000000000E+00  0.000000000000E+00
  0.000000000000E+00  0.000000000000E+00  0.000000000000E+00  0.000000000000E+00  0.000000000000E+00
  0.000000000000E+00  0.000000000000E+00  0.000000000000E+00  0.000000000000E+00  0.000000000000E+00
  0.000000000000E+00
 ae wavefunction
 -0.157273428843E-04 -0.166278552485E-04 -0.175776507861E-04 -0.185795619098E-04 -0.196365783687E-04
 -0.207518564083E-04 -0.219287284526E-04 -0.231707133383E-04 -0.244815271361E-04 -0.258650945914E-04
 -0.273255612243E-04 -0.288673061261E-04 -0.304949554952E-04 -0.322133969565E-04 -0.340277947098E-04
 -0.359436055592E-04 -0.379665958735E-04 -0.401028595357E-04 -0.423588369384E-04 -0.447413350891E-04
 -0.472575488930E-04 -0.499150836773E-04 -0.527219790433E-04 -0.556867341089E-04 -0.588183342418E-04
 -0.621262793582E-04 -0.656206138889E-04 -0.693119585082E-04 -0.732115437317E-04 -0.773312454938E-04
 -0.816836228232E-04 -0.862819577399E-04 -0.911402975067E-04 -0.962734993742E-04 -0.101697277967E-03
 -0.107428255469E-03 -0.113484014773E-03 -0.119883155764E-03 -0.126645354936E-03 -0.133791428523E-03
 -0.141343399359E-03 -0.149324567689E-03 -0.157759586156E-03 -0.166674539220E-03 -0.176097027254E-03
 -0.186056255607E-03 -0.196583128910E-03 -0.207710350943E-03 -0.219472530376E-03 -0.231906292726E-03
 -0.245050398904E-03 -0.258945870707E-03 -0.273636123678E-03 -0.289167107744E-03 -0.305587456075E-03
 -0.322948642641E-03 -0.341305148952E-03 -0.360714640504E-03 -0.381238153469E-03 -0.402940292216E-03
 -0.425889438252E-03 -0.450157971216E-03 -0.475822502608E-03 -0.502964122917E-03 -0.531668662914E-03
 -0.562026969840E-03 -0.594135199320E-03 -0.628095123815E-03 -0.664014458500E-03 -0.702007205477E-03
 -0.742194017278E-03 -0.784702580647E-03 -0.829668021636E-03 -0.877233333092E-03 -0.927549825648E-03
 -0.980777603385E-03 -0.103708606535E-02 -0.109665443419E-02 -0.115967231318E-02 -0.122634027294E-02
 -0.129687046927E-02 -0.137148729345E-02 -0.145042805640E-02 -0.153394370833E-02 -0.162229959514E-02
 -0.171577625335E-02 -0.181467024489E-02 -0.191929503341E-02 -0.202998190375E-02 -0.214708092596E-02
 -0.227096196563E-02 -0.240201574199E-02 -0.254065493528E-02 -0.268731534496E-02 -0.284245710023E-02
 -0.300656592405E-02 -0.318015445221E-02 -0.336376360844E-02 -0.355796403670E-02 -0.376335759162E-02
 -0.398057888773E-02 -0.421029690807E-02 -0.445321667254E-02 -0.471008096587E-02 -0.498167212514E-02
 -0.526881388593E-02 -0.557237328635E-02 -0.589326262726E-02 -0.623244148669E-02 -0.659091878592E-02
 -0.696975490397E-02 -0.737006383653E-02 -0.779301539456E-02 -0.823983743699E-02 -0.871181813087E-02
 -0.921030823125E-02 -0.973672337194E-02 -0.102925463571E-01 -0.108793294417E-01 -0.114986965881E-01
 -0.121523456839E-01 -0.128420507034E-01 -0.135696637959E-01 -0.143371172774E-01 -0.151464255048E-01
 -0.159996866054E-01 -0.168990840335E-01 -0.178468879225E-01 -0.188454561989E-01 -0.198972354179E-01
 -0.210047612824E-01 -0.221706587962E-01 -0.233976420055E-01 -0.246885132722E-01 -0.260461620232E-01
 -0.274735629111E-01 -0.289737733186E-01 -0.305499301351E-01 -0.322052457256E-01 -0.339430030088E-01
 -0.357665495555E-01 -0.376792906109E-01 -0.396846809413E-01 -0.417862153979E-01 -0.439874180845E-01
 -0.462918300133E-01 -0.487029951213E-01 -0.512244445233E-01 -0.538596788636E-01 -0.566121486319E-01
 -0.594852322993E-01 -0.624822121326E-01 -0.656062475385E-01 -0.688603457918E-01 -0.722473300022E-01
 -0.757698041738E-01 -0.794301152192E-01 -0.832303117928E-01 -0.871720998204E-01 -0.912567946092E-01
 -0.954852694401E-01 -0.998579005612E-01 -0.104374508522E+00 -0.109034295813E+00 -0.113835780815E+00
 -0.118776728078E+00 -0.123854075020E+00 -0.129063855147E+00 -0.134401117994E+00 -0.139859846003E+00
 -0.145432868653E+00 -0.151111774225E+00 -0.156886819664E+00 -0.162746839082E+00 -0.168679151580E+00
 -0.174669469106E+00 -0.180701805225E+00 -0.186758385734E+00 -0.192819562176E+00 -0.198863729378E+00
 -0.204867248224E+00 -0.210804374989E+00 -0.216647198638E+00 -0.222365587694E+00 -0.227927148462E+00
 -0.233297196723E+00 -0.238438745343E+00 -0.243312510586E+00 -0.247876940262E+00 -0.252088267026E+00
 -0.255900590224E+00 -0.259265989636E+00 -0.262134674290E+00 -0.264455169263E+00 -0.266174543101E+00
 -0.267238678126E+00 -0.267592585672E+00 -0.267180767976E+00 -0.265947628296E+00 -0.263837930542E+00
 -0.260797309402E+00 -0.256772831483E+00 -0.251713607424E+00 -0.245571454266E+00 -0.238301606569E+00
 -0.229863473882E+00 -0.220221441162E+00 -0.209345707620E+00 -0.197213158271E+00 -0.183808261091E+00
 -0.169123981329E+00 -0.153162702984E+00 -0.135937145971E+00 -0.117471265943E+00 -0.978011222178E-01
 -0.769756978336E-01 -0.550576544004E-01 -0.321240032352E-01 -0.826667329265E-02  0.164070443142E-01
  0.417741957508E-01  0.676960281847E-01  0.940180370860E-01  0.120570214220E+00  0.147167510026E+00
  0.173610519839E+00  0.199686399641E+00  0.225170015918E+00  0.249825337598E+00  0.273407086355E+00
  0.295662671575E+00  0.316334440681E+00  0.335162264563E+00  0.351886448431E+00  0.366250923818E+00
  0.378006660094E+00  0.386915240588E+00  0.392752563716E+00  0.395312635023E+00  0.394411408553E+00
  0.389890623542E+00  0.381621573371E+00  0.369508740779E+00  0.353493234351E+00  0.333555963248E+00
  0.309720487782E+00  0.282055482496E+00  0.250676746194E+00  0.215748691108E+00  0.177485241896E+00
  0.136150075875E+00  0.920561400350E-01  0.455643890723E-01 -0.291829756392E-02 -0.529420441869E-01
 -0.104017760288E+00 -0.155621771103E+00 -0.207201291988E+00 -0.258180737728E+00 -0.307968808547E+00
 -0.355966121507E+00 -0.401572822284E+00 -0.444195311265E+00 -0.483251498906E+00 -0.518175366910E+00
 -0.548423361530E+00 -0.573484732532E+00 -0.592894238823E+00 -0.606243237820E+00 -0.613187415560E+00
 -0.613452180975E+00 -0.606836981073E+00 -0.593218937691E+00 -0.572555628099E+00 -0.544886660212E+00
 -0.510333770150E+00 -0.469099353209E+00 -0.421463508950E+00 -0.367779780036E+00 -0.308469795882E+00
 -0.244017024617E+00 -0.174959814922E+00 -0.101883886376E+00 -0.254144087890E-01  0.537922007004E-01
  0.135056638638E+00  0.217685109794E+00  0.300977627930E+00  0.384236095332E+00  0.466772040633E+00
  0.547913908258E+00  0.627013807443E+00  0.703453622442E+00  0.776650340853E+00  0.846060364483E+00
  0.911182482280E+00  0.971559223570E+00  0.102677661544E+01  0.107646292668E+01  0.112028749104E+01
  0.115796070939E+01  0.118923567188E+01  0.121391092185E+01  0.123183335582E+01  0.124290032529E+01
  0.124706046721E+01  0.124431320619E+01  0.123470708633E+01  0.121833713611E+01  0.119534142869E+01
  0.116589697032E+01  0.113021502597E+01  0.108853598562E+01  0.104112387425E+01  0.988260595971E+00
  0.930239981498E+00  0.000000000000E+00  0.000000000000E+00  0.000000000000E+00  0.000000000000E+00
  0.000000000000E+00  0.000000000000E+00  0.000000000000E+00  0.000000000000E+00  0.000000000000E+00
  0.000000000000E+00  0.000000000000E+00  0.000000000000E+00  0.000000000000E+00  0.000000000000E+00
  0.000000000000E+00  0.000000000000E+00  0.000000000000E+00  0.000000000000E+00  0.000000000000E+00
  0.000000000000E+00  0.000000000000E+00  0.000000000000E+00  0.000000000000E+00  0.000000000000E+00
  0.000000000000E+00  0.000000000000E+00  0.000000000000E+00  0.000000000000E+00  0.000000000000E+00
  0.000000000000E+00  0.000000000000E+00  0.000000000000E+00  0.000000000000E+00  0.000000000000E+00
  0.000000000000E+00  0.000000000000E+00  0.000000000000E+00  0.000000000000E+00  0.000000000000E+00
  0.000000000000E+00  0.000000000000E+00  0.000000000000E+00  0.000000000000E+00  0.000000000000E+00
  0.000000000000E+00
 pseudo wavefunction
  0.328488817054E-12  0.361587042730E-12  0.398020214634E-12  0.438124358824E-12  0.482269359029E-12
  0.530862368118E-12  0.584351563298E-12  0.643230279695E-12  0.708041560415E-12  0.779383165084E-12
  0.857913083023E-12  0.944355601943E-12  0.103950798810E-11  0.114424783957E-11  0.125954118035E-11
  0.138645137015E-11  0.152614891179E-11  0.167992224683E-11  0.184918963905E-11  0.203551225510E-11
  0.224060856335E-11  0.246637018341E-11  0.271487933274E-11  0.298842803102E-11  0.328953923973E-11
  0.362099013155E-11  0.398583770448E-11  0.438744697677E-11  0.482952202271E-11  0.531614013567E-11
  0.585178943325E-11  0.644141025154E-11  0.709044071027E-11  0.780486686895E-11  0.859127793683E-11
  0.945692704568E-11  0.104097981459E-10  0.114586796434E-10  0.126132454553E-10  0.138841442337E-10
  0.152830975786E-10  0.168230081474E-10  0.185180786572E-10  0.203839428772E-10  0.224378098205E-10
  0.246986224638E-10  0.271872324605E-10  0.299265924563E-10  0.329419677840E-10  0.362611694870E-10
  0.399148108231E-10  0.439365896125E-10  0.483635990355E-10  0.532366697459E-10  0.586007464548E-10
  0.645053024591E-10  0.710047959377E-10  0.781591722228E-10  0.860344166803E-10  0.947031632977E-10
  0.104245364593E-09  0.114749029020E-09  0.126311032682E-09  0.139038012820E-09  0.153047351342E-09
  0.168468257438E-09  0.185442959290E-09  0.204128015852E-09  0.224695760800E-09  0.247335891981E-09
  0.272257221006E-09  0.299689599131E-09  0.329886037197E-09  0.363125039157E-09  0.399713170735E-09
  0.439987886907E-09  0.484320644261E-09  0.533120326962E-09  0.586837017918E-09  0.645966149915E-09
  0.711053075018E-09  0.782698094383E-09  0.861561994862E-09  0.948372143469E-09  0.104392919592E-08
  0.114911448110E-08  0.126489812962E-08  0.139234802134E-08  0.153263963446E-08  0.168706688703E-08
  0.185705407070E-08  0.204416898711E-08  0.225013740766E-08  0.247685899035E-08  0.272642480038E-08
  0.300113659598E-08  0.330352805762E-08  0.363638815606E-08  0.400278687499E-08  0.440610352552E-08
  0.485005791339E-08  0.533874464669E-08  0.587667090025E-08  0.646879798510E-08  0.712058710641E-08
  0.783804973182E-08  0.862780303476E-08  0.949713092413E-08  0.104540512231E-07  0.115073896166E-07
  0.126668610498E-07  0.139431593275E-07  0.153480557417E-07  0.168945076365E-07  0.185967779112E-07
  0.204705665643E-07  0.225331554916E-07  0.248035678731E-07  0.273027436188E-07  0.300537324922E-07
  0.330819066912E-07  0.364151948483E-07  0.400843396063E-07  0.441231811467E-07  0.485689692837E-07
  0.534627070036E-07  0.588495286159E-07  0.647791160043E-07  0.713061568159E-07  0.784908488139E-07
  0.863994550431E-07  0.951049149302E-07  0.104687516951E-06  0.115235639068E-06  0.126846563769E-06
  0.139627375215E-06  0.153695946773E-06  0.169182028047E-06  0.186228441411E-06  0.204992399092E-06
  0.225646952943E-06  0.248382590267E-06  0.273408990404E-06  0.300956958281E-06  0.331280552748E-06
  0.364659429310E-06  0.401401418866E-06  0.441845366210E-06  0.486364254470E-06  0.535368644268E-06
  0.589310459315E-06  0.648687153313E-06  0.714046296579E-06  0.785990624637E-06  0.865183595326E-06
  0.952355505603E-06  0.104831022440E-05  0.115393260360E-05  0.127019663530E-05  0.139817443066E-05
  0.153904610292E-05  0.169411064556E-05  0.186479790595E-05  0.205268176460E-05  0.225949464141E-05
  0.248714346237E-05  0.273772723389E-05  0.301355638620E-05  0.331717406414E-05  0.365137956094E-05
  0.401925411081E-05  0.442418927738E-05  0.486991819914E-05  0.536054997924E-05  0.590060753551E-05
  0.649506925889E-05  0.714941486271E-05  0.786967584428E-05  0.866249102189E-05  0.953516765738E-05
  0.104957487250E-04  0.115530869441E-04  0.127169262538E-04  0.139979914783E-04  0.154080870024E-04
  0.169602053630E-04  0.186686467500E-04  0.205491505107E-04  0.226190398602E-04  0.248973811215E-04
  0.274051589494E-04  0.301654691395E-04  0.332037307809E-04  0.365479196873E-04  0.402288252340E-04
  0.442803329390E-04  0.487397353594E-04  0.536480741279E-04  0.590505162355E-04  0.649967679744E-04
  0.715415302899E-04  0.787449996632E-04  0.866734190523E-04  0.953996838633E-04  0.105004008413E-03
  0.115574658884E-03  0.127208759350E-03  0.140013178109E-03  0.154105502251E-03  0.169615109174E-03
  0.186684344591E-03  0.205469817514E-03  0.226143823702E-03  0.248895910165E-03  0.273934594536E-03
  0.301489254435E-03  0.331812203396E-03  0.365180971497E-03  0.401900810558E-03  0.442307445633E-03
  0.486770096567E-03  0.535694795587E-03  0.589528029338E-03  0.648760736347E-03  0.713932693785E-03
  0.785637330419E-03  0.864527006026E-03  0.951318801115E-03  0.104680086469E-02  0.115183937196E-02
  0.126738614853E-02  0.139448702216E-02  0.153429096881E-02  0.168806012478E-02  0.185718074308E-02
  0.204317517811E-02  0.224771498978E-02  0.247263526501E-02  0.271995026209E-02  0.299187049122E-02
  0.329082135269E-02  0.361946346258E-02  0.398071480474E-02  0.437777485640E-02  0.481415084429E-02
  0.529368629676E-02  0.582059206665E-02  0.639948000830E-02  0.703539950032E-02  0.773387701342E-02
  0.850095892942E-02  0.934325782290E-02  0.102680024211E-01  0.112830914597E-01  0.123971516512E-01
  0.136195999808E-01  0.149607105350E-01  0.164316860619E-01  0.180447344398E-01  0.198131502173E-01
  0.217514013533E-01  0.238752212553E-01  0.262017061713E-01  0.287494179367E-01  0.315384920221E-01
  0.345907507537E-01  0.379298215023E-01  0.415812595441E-01  0.455726752014E-01  0.499338647624E-01
  0.546969445686E-01  0.598964875439E-01  0.655696613227E-01  0.717563670310E-01  0.784993776794E-01
  0.858444750588E-01  0.938405839960E-01  0.102539902840E+00  0.111998029137E+00  0.122274079604E+00
  0.133430803801E+00  0.145534691279E+00  0.158656072551E+00  0.172869214916E+00  0.188252415102E+00
  0.204888091765E+00  0.222862882128E+00  0.242267748512E+00  0.263198101947E+00  0.285753951571E+00
  0.310040089758E+00  0.336166323774E+00  0.364247764769E+00  0.394405183693E+00  0.426765440626E+00
  0.461461988260E+00  0.498635440930E+00  0.538434186554E+00  0.581014998741E+00  0.626543578952E+00
  0.675194922364E+00  0.727153354912E+00  0.782612032030E+00  0.841771621692E+00  0.904837816787E+00
  0.972017237366E+00  0.104351119750E+01  0.111950673293E+01  0.120016422734E+01  0.128560095417E+01
  0.137586989076E+01  0.147093328842E+01  0.157080183124E+01  0.167611213381E+01  0.178777525577E+01
  0.190684527559E+01  0.000000000000E+00  0.000000000000E+00  0.000000000000E+00  0.000000000000E+00
  0.000000000000E+00  0.000000000000E+00  0.000000000000E+00  0.000000000000E+00  0.000000000000E+00
  0.000000000000E+00  0.000000000000E+00  0.000000000000E+00  0.000000000000E+00  0.000000000000E+00
  0.000000000000E+00  0.000000000000E+00  0.000000000000E+00  0.000000000000E+00  0.000000000000E+00
  0.000000000000E+00  0.000000000000E+00  0.000000000000E+00  0.000000000000E+00  0.000000000000E+00
  0.000000000000E+00  0.000000000000E+00  0.000000000000E+00  0.000000000000E+00  0.000000000000E+00
  0.000000000000E+00  0.000000000000E+00  0.000000000000E+00  0.000000000000E+00  0.000000000000E+00
  0.000000000000E+00  0.000000000000E+00  0.000000000000E+00  0.000000000000E+00  0.000000000000E+00
  0.000000000000E+00  0.000000000000E+00  0.000000000000E+00  0.000000000000E+00  0.000000000000E+00
  0.000000000000E+00
 ae wavefunction
  0.511954624019E-08  0.558785887252E-08  0.609606600653E-08  0.664781104275E-08  0.724705234825E-08
  0.789809213870E-08  0.860560790471E-08  0.937468661729E-08  0.102108619697E-07  0.111201549356E-07
  0.121091179509E-07  0.131848830502E-07  0.143552143263E-07  0.156285651062E-07  0.170141402821E-07
  0.185219642676E-07  0.201629551014E-07  0.219490052612E-07  0.238930698078E-07  0.260092625348E-07
  0.283129608632E-07  0.308209202829E-07  0.335513992352E-07  0.365242953818E-07  0.397612943341E-07
  0.432860319799E-07  0.471242716755E-07  0.513040976773E-07  0.558561263214E-07  0.608137365952E-07
  0.662133219074E-07  0.720945650221E-07  0.785007383156E-07  0.854790317123E-07  0.930809108787E-07
  0.101362508501E-06  0.110385051725E-06  0.120215329149E-06  0.130926201054E-06  0.142597156922E-06
  0.155314924670E-06  0.169174136441E-06  0.184278056251E-06  0.200739375303E-06  0.218681081304E-06
  0.238237408753E-06  0.259554877789E-06  0.282793429948E-06  0.308127669916E-06  0.335748223283E-06
  0.365863221200E-06  0.398699923901E-06  0.434506496172E-06  0.473553949095E-06  0.516138263737E-06
  0.562582713954E-06  0.613240407088E-06  0.668497063119E-06  0.728774054776E-06  0.794531733229E-06
  0.866273066336E-06  0.944547618914E-06  0.102995590735E-05  0.112315416386E-05  0.122485954903E-05
  0.133585585501E-05  0.145699974554E-05  0.158922758347E-05  0.173356290123E-05  0.189112457464E-05
  0.206313576657E-05  0.225093371262E-05  0.245598042831E-05  0.267987442427E-05  0.292436352413E-05
  0.319135888874E-05  0.348295035978E-05  0.380142324655E-05  0.414927669089E-05  0.452924375808E-05
  0.494431341481E-05  0.539775457044E-05  0.589314237389E-05  0.643438697612E-05  0.702576498741E-05
  0.767195387969E-05  0.837806960668E-05  0.914970773988E-05  0.999298844489E-05  0.109146056524E-04
  0.119218808098E-04  0.130228216336E-04  0.142261863226E-04  0.155415537285E-04  0.169794000301E-04
  0.185511825014E-04  0.202694310176E-04  0.221478480010E-04  0.242014175658E-04  0.264465246932E-04
  0.289010853343E-04  0.315846884187E-04  0.345187508314E-04  0.377266865073E-04  0.412340908953E-04
  0.450689421451E-04  0.492618204841E-04  0.538461473771E-04  0.588584461874E-04  0.643386262034E-04
  0.703302920435E-04  0.768810806172E-04  0.840430279896E-04  0.918729686884E-04  0.100432970186E-03
  0.109790805503E-03  0.120020467112E-03  0.131202725541E-03  0.143425736365E-03  0.156785699503E-03
  0.171387575070E-03  0.187345860283E-03  0.204785432305E-03  0.223842462174E-03  0.244665405379E-03
  0.267416074969E-03  0.292270803486E-03  0.319421700415E-03  0.349078012222E-03  0.381467592536E-03
  0.416838490399E-03  0.455460665002E-03  0.497627835744E-03  0.543659476936E-03  0.593902966867E-03
  0.648735901464E-03  0.708568583144E-03  0.773846695920E-03  0.845054178167E-03  0.922716304856E-03
  0.100740299131E-02  0.109973233086E-02  0.120037437885E-02  0.131005519574E-02  0.142956116171E-02
  0.155974357546E-02  0.170152354929E-02  0.185589721226E-02  0.202394123262E-02  0.220681866983E-02
  0.240578516534E-02  0.262219548003E-02  0.285751038438E-02  0.311330390554E-02  0.339127093279E-02
  0.369323518008E-02  0.402115750097E-02  0.437714454698E-02  0.476345775618E-02  0.518252265318E-02
  0.563693843578E-02  0.612948781680E-02  0.666314708169E-02  0.724109631406E-02  0.786672973139E-02
  0.854366606278E-02  0.927575888849E-02  0.100671068482E-01  0.109220636104E-01  0.118452474807E-01
  0.128415505092E-01  0.139161469390E-01  0.150745008210E-01  0.163223725961E-01  0.176658244270E-01
  0.191112240365E-01  0.206652467860E-01  0.223348756973E-01  0.241273990928E-01  0.260504054936E-01
  0.281117753761E-01  0.303196693468E-01  0.326825122494E-01  0.352089726778E-01  0.379079373343E-01
  0.407884796529E-01  0.438598221088E-01  0.471312916520E-01  0.506122677412E-01  0.543121224922E-01
  0.582401524939E-01  0.624055018746E-01  0.668170762182E-01  0.714834469432E-01  0.764127457551E-01
  0.816125487909E-01  0.870897500906E-01  0.928504240810E-01  0.988996768458E-01  0.105241486087E+00
  0.111878529840E+00  0.118812004191E+00  0.126041430438E+00  0.133564452359E+00  0.141376624522E+00
  0.149471192810E+00  0.157838868684E+00  0.166467599009E+00  0.175342333637E+00  0.184444793309E+00
  0.193753240814E+00  0.203242258740E+00  0.212882537523E+00  0.222640677865E+00  0.232479011958E+00
  0.242355448232E+00  0.252223344649E+00  0.262031415761E+00  0.271723678909E+00  0.281239444876E+00
  0.290513358087E+00  0.299475490699E+00  0.308051493695E+00  0.316162806175E+00  0.323726921916E+00
  0.330657710728E+00  0.336865792714E+00  0.342258967648E+00  0.346742709520E+00  0.350220746247E+00
  0.352595752017E+00  0.353770178184E+00  0.353647232183E+00  0.352131985759E+00  0.349132570673E+00
  0.344561419491E+00  0.338336528294E+00  0.330382737631E+00  0.320633033412E+00  0.309029862767E+00
  0.295526450753E+00  0.280088098767E+00  0.262693445383E+00  0.243335672340E+00  0.222023640085E+00
  0.198782937068E+00  0.173656825127E+00  0.146707060263E+00  0.118014564763E+00  0.876799235503E-01
  0.558236757672E-01  0.225863724617E-01 -0.118716263468E-01 -0.473706371037E-01 -0.837124363357E-01
 -0.120681353483E+00 -0.158045684941E+00 -0.195559449344E+00 -0.232964508948E+00 -0.269993048072E+00
 -0.306370265774E+00 -0.341816878247E+00 -0.376050790227E+00 -0.408787519612E+00 -0.439740052518E+00
 -0.468620241348E+00 -0.495143581670E+00 -0.519036222130E+00 -0.540041032810E+00 -0.557921327293E+00
 -0.572463117452E+00 -0.583477007667E+00 -0.590800137342E+00 -0.594298081847E+00 -0.593866439893E+00
 -0.589431855589E+00 -0.580952344523E+00 -0.568416920771E+00 -0.551844602532E+00 -0.531282903297E+00
 -0.506805912173E+00 -0.478512050043E+00 -0.446521568744E+00 -0.410973843141E+00 -0.372024492402E+00
 -0.329842358598E+00 -0.284606367089E+00 -0.236502295400E+00 -0.185719480404E+00 -0.132447498003E+00
 -0.768728480651E-01 -0.191756721083E-01  0.404734749954E-01  0.101916768859E+00  0.165012105254E+00
  0.229635793752E+00  0.295684750390E+00  0.363078020648E+00  0.431757680215E+00  0.501689509078E+00
  0.572864091780E+00  0.645298930603E+00  0.719041780663E+00  0.794175016173E+00  0.870820659227E+00
  0.949145794127E+00  0.102936827640E+01  0.111176280017E+01  0.119666747107E+01  0.128449105851E+01
  0.137572112837E+01  0.147093328842E+01  0.157080183124E+01  0.167611213381E+01  0.178777525577E+01
  0.190684527559E+01  0.000000000000E+00  0.000000000000E+00  0.000000000000E+00  0.000000000000E+00
  0.000000000000E+00  0.000000000000E+00  0.000000000000E+00  0.000000000000E+00  0.000000000000E+00
  0.000000000000E+00  0.000000000000E+00  0.000000000000E+00  0.000000000000E+00  0.000000000000E+00
  0.000000000000E+00  0.000000000000E+00  0.000000000000E+00  0.000000000000E+00  0.000000000000E+00
  0.000000000000E+00  0.000000000000E+00  0.000000000000E+00  0.000000000000E+00  0.000000000000E+00
  0.000000000000E+00  0.000000000000E+00  0.000000000000E+00  0.000000000000E+00  0.000000000000E+00
  0.000000000000E+00  0.000000000000E+00  0.000000000000E+00  0.000000000000E+00  0.000000000000E+00
  0.000000000000E+00  0.000000000000E+00  0.000000000000E+00  0.000000000000E+00  0.000000000000E+00
  0.000000000000E+00  0.000000000000E+00  0.000000000000E+00  0.000000000000E+00  0.000000000000E+00
  0.000000000000E+00
 End of Dataset
  PAW_PBE Br 06Sep2000                   
   7.00000000000000     
 parameters from PSCTR are:
   SHA256 =  96a73d2954943bbee26f4990d676cc6c3bf44b8dd2c75cd4b3b825d8403f0103 Br/POTCAR
   COPYR  = (c) Copyright 06Sep2000 Georg Kresse
   COPYR  = This file is part of the software VASP. Any use, copying, and all other rights are regulated by the VASP license agreement.
   COPYR  = If you do not have a valid VASP license, you may not use, copy or distribute this file.
   VRHFIN =Br: s2p5
   LEXCH  = PE
   EATOM  =   368.4488 eV,   27.0802 Ry

   TITEL  = PAW_PBE Br 06Sep2000
   LULTRA =        F    use ultrasoft PP ?
   IUNSCR =        1    unscreen: 0-lin 1-nonlin 2-no
   RPACOR =    1.900    partial core radius
   POMASS =   79.904; ZVAL   =    7.000    mass and valenz
   RCORE  =    2.100    outmost cutoff radius
   RWIGS  =    2.200; RWIGS  =    1.164    wigner-seitz radius (au A)
   ENMAX  =  216.285; ENMIN  =  162.214 eV
   ICORE  =        3    local potential
   LCOR   =        T    correct aug charges
   LPAW   =        T    paw PP
   EAUG   =  503.852
   DEXC   =    0.000
   RMAX   =    2.139    core radius for proj-oper
   RAUG   =    1.300    factor for augmentation sphere
   RDEP   =    2.186    radius for radial grids
   RDEPT  =    1.890    core radius for aug-charge
 
   Atomic configuration
   10 entries
     n  l   j            E        occ.
     1  0  0.50    -13316.2796   2.0000
     2  0  0.50     -1732.8239   2.0000
     2  1  1.50     -1528.2193   6.0000
     3  0  0.50      -238.0460   2.0000
     3  1  1.50      -173.4609   6.0000
     3  2  2.50       -66.7132  10.0000
     4  0  0.50       -20.1334   2.0000
     4  1  0.50        -7.8591   5.0000
     4  2  2.50        -8.1635   0.0000
     4  3  2.50        -8.1635   0.0000
   Description
     l       E           TYP  RCUT    TYP  RCUT
     0    -20.1333652     23  2.100
     0    -21.4939478     23  2.100
     1     -7.8591052     23  2.100
     1     -3.1608434     23  2.100
     2     -8.1634956     23  2.100
     3     -1.3605826      7  2.100
   Error from kinetic energy argument (eV)
   NDATA  =      100
   STEP   =   20.000   1.050
  91.4      86.8      84.5      79.9      77.6      73.1      68.7      66.6
  62.3      58.2      56.3      52.4      48.7      45.2      41.8      38.6
  35.6      32.8      30.1      26.5      24.2      22.1      19.2      17.5
  15.9      13.7      11.8      10.6      9.08      7.73      6.56      5.55
  4.68      3.93      3.28      2.74      2.13      1.76      1.35      1.10
 0.830     0.620     0.458     0.334     0.241     0.171     0.120     0.752E-01
 0.512E-01 0.315E-01 0.197E-01 0.141E-01 0.102E-01 0.835E-02 0.753E-02 0.730E-02
 0.710E-02 0.672E-02 0.609E-02 0.527E-02 0.437E-02 0.349E-02 0.271E-02 0.200E-02
 0.157E-02 0.127E-02 0.112E-02 0.105E-02 0.101E-02 0.966E-03 0.875E-03 0.750E-03
 0.614E-03 0.492E-03 0.390E-03 0.337E-03 0.309E-03 0.296E-03 0.279E-03 0.252E-03
 0.212E-03 0.172E-03 0.142E-03 0.124E-03 0.117E-03 0.111E-03 0.100E-03 0.841E-04
 0.687E-04 0.588E-04 0.542E-04 0.515E-04 0.460E-04 0.388E-04 0.320E-04 0.286E-04
 0.269E-04 0.247E-04 0.206E-04 0.173E-04
END of PSCTR-controll parameters
 local part
   88.8171214632094     
  0.65194570E+02  0.65195707E+02  0.65185436E+02  0.65168318E+02  0.65144349E+02
  0.65113522E+02  0.65075822E+02  0.65031221E+02  0.64979677E+02  0.64921130E+02
  0.64855503E+02  0.64782698E+02  0.64702597E+02  0.64615067E+02  0.64519956E+02
  0.64417099E+02  0.64306320E+02  0.64187434E+02  0.64060244E+02  0.63924550E+02
  0.63780143E+02  0.63626808E+02  0.63464323E+02  0.63292459E+02  0.63110978E+02
  0.62919638E+02  0.62718186E+02  0.62506365E+02  0.62283912E+02  0.62050561E+02
  0.61806040E+02  0.61550079E+02  0.61282406E+02  0.61002751E+02  0.60710846E+02
  0.60406428E+02  0.60089239E+02  0.59759026E+02  0.59415545E+02  0.59058560E+02
  0.58687849E+02  0.58303198E+02  0.57904411E+02  0.57491307E+02  0.57063724E+02
  0.56621520E+02  0.56164574E+02  0.55692790E+02  0.55206097E+02  0.54704450E+02
  0.54187831E+02  0.53656255E+02  0.53109763E+02  0.52548433E+02  0.51972373E+02
  0.51381727E+02  0.50776675E+02  0.50157433E+02  0.49524255E+02  0.48877432E+02
  0.48217297E+02  0.47544218E+02  0.46858603E+02  0.46160900E+02  0.45451593E+02
  0.44731207E+02  0.44000302E+02  0.43259476E+02  0.42509362E+02  0.41750627E+02
  0.40983974E+02  0.40210135E+02  0.39429873E+02  0.38643981E+02  0.37853276E+02
  0.37058599E+02  0.36260815E+02  0.35460806E+02  0.34659470E+02  0.33857719E+02
  0.33056478E+02  0.32256676E+02  0.31459250E+02  0.30665138E+02  0.29875276E+02
  0.29090596E+02  0.28312023E+02  0.27540469E+02  0.26776834E+02  0.26021999E+02
  0.25276825E+02  0.24542150E+02  0.23818784E+02  0.23107509E+02  0.22409072E+02
  0.21724189E+02  0.21053535E+02  0.20397747E+02  0.19757420E+02  0.19133103E+02
  0.18525302E+02  0.17934474E+02  0.17361027E+02  0.16805317E+02  0.16267652E+02
  0.15748285E+02  0.15247418E+02  0.14765199E+02  0.14301725E+02  0.13857038E+02
  0.13431129E+02  0.13023937E+02  0.12635350E+02  0.12265206E+02  0.11913296E+02
  0.11579361E+02  0.11263101E+02  0.10964168E+02  0.10682177E+02  0.10416700E+02
  0.10167276E+02  0.99334067E+01  0.97145656E+01  0.95101959E+01  0.93197154E+01
  0.91425196E+01  0.89779840E+01  0.88254676E+01  0.86843159E+01  0.85538641E+01
  0.84334399E+01  0.83223670E+01  0.82199678E+01  0.81255668E+01  0.80384933E+01
  0.79580841E+01  0.78836866E+01  0.78146614E+01  0.77503844E+01  0.76902495E+01
  0.76336709E+01  0.75800848E+01  0.75289516E+01  0.74797575E+01  0.74320159E+01
  0.73852692E+01  0.73390896E+01  0.72930802E+01  0.72468757E+01  0.72001433E+01
  0.71525827E+01  0.71039264E+01  0.70539398E+01  0.70024209E+01  0.69491999E+01
  0.68941390E+01  0.68371310E+01  0.67780992E+01  0.67169959E+01  0.66538015E+01
  0.65885232E+01  0.65211933E+01  0.64518683E+01  0.63806267E+01  0.63075675E+01
  0.62328086E+01  0.61564849E+01  0.60787462E+01  0.59997556E+01  0.59196874E+01
  0.58387256E+01  0.57570613E+01  0.56748915E+01  0.55924169E+01  0.55098404E+01
  0.54273648E+01  0.53451917E+01  0.52635195E+01  0.51825420E+01  0.51024470E+01
  0.50234147E+01  0.49456170E+01  0.48692155E+01  0.47943616E+01  0.47211945E+01
  0.46498412E+01  0.45804157E+01  0.45130182E+01  0.44477349E+01  0.43846377E+01
  0.43237838E+01  0.42652162E+01  0.42089630E+01  0.41550384E+01  0.41034420E+01
  0.40541604E+01  0.40071665E+01  0.39624210E+01  0.39198724E+01  0.38794583E+01
  0.38411056E+01  0.38047318E+01  0.37702458E+01  0.37375487E+01  0.37065349E+01
  0.36770929E+01  0.36491066E+01  0.36224561E+01  0.35970190E+01  0.35726709E+01
  0.35492871E+01  0.35267429E+01  0.35049151E+01  0.34836825E+01  0.34629272E+01
  0.34425346E+01  0.34223953E+01  0.34024047E+01  0.33824644E+01  0.33624823E+01
  0.33423733E+01  0.33220599E+01  0.33014722E+01  0.32805483E+01  0.32592349E+01
  0.32374868E+01  0.32152674E+01  0.31925486E+01  0.31693106E+01  0.31455420E+01
  0.31212392E+01  0.30964065E+01  0.30710557E+01  0.30452054E+01  0.30188810E+01
  0.29921142E+01  0.29649422E+01  0.29374074E+01  0.29095566E+01  0.28814410E+01
  0.28531147E+01  0.28246350E+01  0.27960609E+01  0.27674533E+01  0.27388737E+01
  0.27103839E+01  0.26820457E+01  0.26539198E+01  0.26260654E+01  0.25985400E+01
  0.25713985E+01  0.25446931E+01  0.25184726E+01  0.24927822E+01  0.24676631E+01
  0.24431522E+01  0.24192818E+01  0.23960796E+01  0.23735684E+01  0.23517658E+01
  0.23306848E+01  0.23103330E+01  0.22907133E+01  0.22718234E+01  0.22536565E+01
  0.22362009E+01  0.22194409E+01  0.22033561E+01  0.21879225E+01  0.21731123E+01
  0.21588945E+01  0.21452351E+01  0.21320975E+01  0.21194426E+01  0.21072300E+01
  0.20954173E+01  0.20839614E+01  0.20728185E+01  0.20619443E+01  0.20512950E+01
  0.20408270E+01  0.20304978E+01  0.20202658E+01  0.20100912E+01  0.19999359E+01
  0.19897641E+01  0.19795421E+01  0.19692392E+01  0.19588272E+01  0.19482812E+01
  0.19375792E+01  0.19267026E+01  0.19156361E+01  0.19043677E+01  0.18928888E+01
  0.18811943E+01  0.18692822E+01  0.18571540E+01  0.18448142E+01  0.18322703E+01
  0.18195327E+01  0.18066146E+01  0.17935315E+01  0.17803015E+01  0.17669443E+01
  0.17534819E+01  0.17399374E+01  0.17263355E+01  0.17127017E+01  0.16990624E+01
  0.16854444E+01  0.16718746E+01  0.16583799E+01  0.16449870E+01  0.16317219E+01
  0.16186097E+01  0.16056746E+01  0.15929394E+01  0.15804255E+01  0.15681527E+01
  0.15561388E+01  0.15443998E+01  0.15329496E+01  0.15218000E+01  0.15109602E+01
  0.15004377E+01  0.14902371E+01  0.14803610E+01  0.14708095E+01  0.14615807E+01
  0.14526702E+01  0.14440714E+01  0.14357759E+01  0.14277731E+01  0.14200506E+01
  0.14125946E+01  0.14053894E+01  0.13984181E+01  0.13916626E+01  0.13851040E+01
  0.13787223E+01  0.13724970E+01  0.13664074E+01  0.13604322E+01  0.13545504E+01
  0.13487409E+01  0.13429833E+01  0.13372574E+01  0.13315439E+01  0.13258242E+01
  0.13200809E+01  0.13142978E+01  0.13084597E+01  0.13025532E+01  0.12965661E+01
  0.12904879E+01  0.12843097E+01  0.12780243E+01  0.12716263E+01  0.12651120E+01
  0.12584793E+01  0.12517279E+01  0.12448593E+01  0.12378764E+01  0.12307840E+01
  0.12235880E+01  0.12162961E+01  0.12089171E+01  0.12014609E+01  0.11939388E+01
  0.11863626E+01  0.11787454E+01  0.11711005E+01  0.11634420E+01  0.11557842E+01
  0.11481419E+01  0.11405297E+01  0.11329622E+01  0.11254538E+01  0.11180188E+01
  0.11106706E+01  0.11034223E+01  0.10962861E+01  0.10892734E+01  0.10823948E+01
  0.10756596E+01  0.10690763E+01  0.10626520E+01  0.10563927E+01  0.10503030E+01
  0.10443863E+01  0.10386448E+01  0.10330792E+01  0.10276890E+01  0.10224723E+01
  0.10174262E+01  0.10125462E+01  0.10078270E+01  0.10032621E+01  0.99884386E+00
  0.99456387E+00  0.99041282E+00  0.98638067E+00  0.98245675E+00  0.97862988E+00
  0.97488844E+00  0.97122054E+00  0.96761406E+00  0.96405685E+00  0.96053675E+00
  0.95704179E+00  0.95356025E+00  0.95008076E+00  0.94659243E+00  0.94308494E+00
  0.93954862E+00  0.93597453E+00  0.93235453E+00  0.92868136E+00  0.92494868E+00
  0.92115110E+00  0.91728423E+00  0.91334471E+00  0.90933021E+00  0.90523945E+00
  0.90107218E+00  0.89682920E+00  0.89251228E+00  0.88812419E+00  0.88366861E+00
  0.87915013E+00  0.87457411E+00  0.86994671E+00  0.86527473E+00  0.86056560E+00
  0.85582726E+00  0.85106808E+00  0.84629677E+00  0.84152234E+00  0.83675391E+00
  0.83200073E+00  0.82727199E+00  0.82257682E+00  0.81792413E+00  0.81332255E+00
  0.80878036E+00  0.80430540E+00  0.79990499E+00  0.79558586E+00  0.79135412E+00
  0.78721520E+00  0.78317377E+00  0.77923376E+00  0.77539827E+00  0.77166962E+00
  0.76804926E+00  0.76453782E+00  0.76113509E+00  0.75784002E+00  0.75465076E+00
  0.75156466E+00  0.74857833E+00  0.74568765E+00  0.74288784E+00  0.74017351E+00
  0.73753872E+00  0.73497703E+00  0.73248157E+00  0.73004513E+00  0.72766019E+00
  0.72531904E+00  0.72301380E+00  0.72073657E+00  0.71847940E+00  0.71623447E+00
  0.71399409E+00  0.71175081E+00  0.70949747E+00  0.70722727E+00  0.70493384E+00
  0.70261129E+00  0.70025422E+00  0.69785785E+00  0.69541795E+00  0.69293097E+00
  0.69039400E+00  0.68780481E+00  0.68516186E+00  0.68246431E+00  0.67971203E+00
  0.67690556E+00  0.67404614E+00  0.67113566E+00  0.66817663E+00  0.66517218E+00
  0.66212599E+00  0.65904226E+00  0.65592564E+00  0.65278121E+00  0.64961443E+00
  0.64643103E+00  0.64323701E+00  0.64003856E+00  0.63684197E+00  0.63365363E+00
  0.63047990E+00  0.62732710E+00  0.62420140E+00  0.62110883E+00  0.61805514E+00
  0.61504580E+00  0.61208592E+00  0.60918025E+00  0.60633307E+00  0.60354822E+00
  0.60082900E+00  0.59817822E+00  0.59559811E+00  0.59309035E+00  0.59065604E+00
  0.58829569E+00  0.58600921E+00  0.58379595E+00  0.58165468E+00  0.57958362E+00
  0.57758044E+00  0.57564231E+00  0.57376594E+00  0.57194760E+00  0.57018314E+00
  0.56846809E+00  0.56679763E+00  0.56516673E+00  0.56357010E+00  0.56200230E+00
  0.56045781E+00  0.55893101E+00  0.55741630E+00  0.55590813E+00  0.55440103E+00
  0.55288971E+00  0.55136906E+00  0.54983422E+00  0.54828065E+00  0.54670410E+00
  0.54510071E+00  0.54346703E+00  0.54180002E+00  0.54009708E+00  0.53835610E+00
  0.53657544E+00  0.53475398E+00  0.53289106E+00  0.53098655E+00  0.52904082E+00
  0.52705473E+00  0.52502960E+00  0.52296723E+00  0.52086985E+00  0.51874009E+00
  0.51658099E+00  0.51439590E+00  0.51218850E+00  0.50996273E+00  0.50772276E+00
  0.50547297E+00  0.50321786E+00  0.50096205E+00  0.49871019E+00  0.49646698E+00
  0.49423707E+00  0.49202500E+00  0.48983523E+00  0.48767203E+00  0.48553947E+00
  0.48344136E+00  0.48138125E+00  0.47936237E+00  0.47738761E+00  0.47545951E+00
  0.47358020E+00  0.47175143E+00  0.46997454E+00  0.46825043E+00  0.46657958E+00
  0.46496203E+00  0.46339739E+00  0.46188486E+00  0.46042320E+00  0.45901080E+00
  0.45764565E+00  0.45632539E+00  0.45504734E+00  0.45380850E+00  0.45260561E+00
  0.45143517E+00  0.45029349E+00  0.44917667E+00  0.44808073E+00  0.44700157E+00
  0.44593503E+00  0.44487695E+00  0.44382318E+00  0.44276965E+00  0.44171239E+00
  0.44064757E+00  0.43957151E+00  0.43848079E+00  0.43737217E+00  0.43624273E+00
  0.43508979E+00  0.43391104E+00  0.43270444E+00  0.43146834E+00  0.43020143E+00
  0.42890277E+00  0.42757179E+00  0.42620832E+00  0.42481254E+00  0.42338500E+00
  0.42192664E+00  0.42043872E+00  0.41892284E+00  0.41738094E+00  0.41581521E+00
  0.41422813E+00  0.41262243E+00  0.41100103E+00  0.40936706E+00  0.40772378E+00
  0.40607458E+00  0.40442295E+00  0.40277241E+00  0.40112651E+00  0.39948880E+00
  0.39786277E+00  0.39625181E+00  0.39465923E+00  0.39308815E+00  0.39154154E+00
  0.39002217E+00  0.38853257E+00  0.38707504E+00  0.38565158E+00  0.38426393E+00
  0.38291353E+00  0.38160149E+00  0.38032863E+00  0.37909542E+00  0.37790201E+00
  0.37674822E+00  0.37563355E+00  0.37455717E+00  0.37351795E+00  0.37251448E+00
  0.37154506E+00  0.37060772E+00  0.36970027E+00  0.36882030E+00  0.36796522E+00
  0.36713225E+00  0.36631848E+00  0.36552091E+00  0.36473644E+00  0.36396190E+00
  0.36319413E+00  0.36242996E+00  0.36166625E+00  0.36089996E+00  0.36012810E+00
  0.35934785E+00  0.35855651E+00  0.35775157E+00  0.35693070E+00  0.35609179E+00
  0.35523297E+00  0.35435262E+00  0.35344936E+00  0.35252209E+00  0.35157000E+00
  0.35059256E+00  0.34958952E+00  0.34856092E+00  0.34750711E+00  0.34642868E+00
  0.34532653E+00  0.34420179E+00  0.34305587E+00  0.34189037E+00  0.34070713E+00
  0.33950817E+00  0.33829570E+00  0.33707207E+00  0.33583974E+00  0.33460130E+00
  0.33335941E+00  0.33211678E+00  0.33087614E+00  0.32964023E+00  0.32841175E+00
  0.32719337E+00  0.32598765E+00  0.32479707E+00  0.32362397E+00  0.32247054E+00
  0.32133881E+00  0.32023063E+00  0.31914765E+00  0.31809128E+00  0.31706274E+00
  0.31606300E+00  0.31509278E+00  0.31415256E+00  0.31324255E+00  0.31236272E+00
  0.31151280E+00  0.31069224E+00  0.30990028E+00  0.30913592E+00  0.30839793E+00
  0.30768489E+00  0.30699518E+00  0.30632701E+00  0.30567845E+00  0.30504740E+00
  0.30443168E+00  0.30382899E+00  0.30323696E+00  0.30265318E+00  0.30207521E+00
  0.30150059E+00  0.30092690E+00  0.30035176E+00  0.29977284E+00  0.29918792E+00
  0.29859487E+00  0.29799170E+00  0.29737654E+00  0.29674771E+00  0.29610369E+00
  0.29544314E+00  0.29476492E+00  0.29406809E+00  0.29335195E+00  0.29261598E+00
  0.29185992E+00  0.29108371E+00  0.29028753E+00  0.28947175E+00  0.28863699E+00
  0.28778405E+00  0.28691392E+00  0.28602780E+00  0.28512704E+00  0.28421315E+00
  0.28328777E+00  0.28235269E+00  0.28140978E+00  0.28046102E+00  0.27950844E+00
  0.27855412E+00  0.27760019E+00  0.27664877E+00  0.27570196E+00  0.27476185E+00
  0.27383045E+00  0.27290971E+00  0.27200150E+00  0.27110755E+00  0.27022950E+00
  0.26936884E+00  0.26852691E+00  0.26770489E+00  0.26690378E+00  0.26612441E+00
  0.26536742E+00  0.26463327E+00  0.26392219E+00  0.26323426E+00  0.26256932E+00
  0.26192705E+00  0.26130692E+00  0.26070823E+00  0.26013010E+00  0.25957149E+00
  0.25903121E+00  0.25850793E+00  0.25800019E+00  0.25750643E+00  0.25702497E+00
  0.25655408E+00  0.25609194E+00  0.25563669E+00  0.25518645E+00  0.25473933E+00
  0.25429344E+00  0.25384692E+00  0.25339796E+00  0.25294480E+00  0.25248577E+00
  0.25201928E+00  0.25154387E+00  0.25105817E+00  0.25056095E+00  0.25005113E+00
  0.24952776E+00  0.24899007E+00  0.24843745E+00  0.24786943E+00  0.24728576E+00
  0.24668632E+00  0.24607119E+00  0.24544061E+00  0.24479499E+00  0.24413491E+00
  0.24346108E+00  0.24277437E+00  0.24207580E+00  0.24136648E+00  0.24064767E+00
  0.23992070E+00  0.23918700E+00  0.23844809E+00  0.23770552E+00  0.23696091E+00
  0.23621589E+00  0.23547210E+00  0.23473118E+00  0.23399476E+00  0.23326442E+00
  0.23254169E+00  0.23182802E+00  0.23112482E+00  0.23043336E+00  0.22975485E+00
  0.22909036E+00  0.22844084E+00  0.22780713E+00  0.22718991E+00  0.22658971E+00
  0.22600695E+00  0.22544186E+00  0.22489453E+00  0.22436490E+00  0.22385276E+00
  0.22335775E+00  0.22287936E+00  0.22241696E+00  0.22196977E+00  0.22153692E+00
  0.22111741E+00  0.22071013E+00  0.22031389E+00  0.21992743E+00  0.21954940E+00
  0.21917843E+00  0.21881308E+00  0.21845190E+00  0.21809342E+00  0.21773619E+00
  0.21737874E+00  0.21701968E+00  0.21665763E+00  0.21629128E+00  0.21591939E+00
  0.21554079E+00  0.21515441E+00  0.21475927E+00  0.21435450E+00  0.21393934E+00
  0.21351318E+00  0.21307549E+00  0.21262590E+00  0.21216418E+00  0.21169020E+00
  0.21120400E+00  0.21070574E+00  0.21019571E+00  0.20967433E+00  0.20914213E+00
  0.20859976E+00  0.20804799E+00  0.20748766E+00  0.20691973E+00  0.20634522E+00
  0.20576522E+00  0.20518091E+00  0.20459347E+00  0.20400416E+00  0.20341423E+00
  0.20282497E+00  0.20223765E+00  0.20165352E+00  0.20107383E+00  0.20049975E+00
  0.19993244E+00  0.19937299E+00  0.19882240E+00  0.19828161E+00  0.19775148E+00
  0.19723276E+00  0.19672610E+00  0.19623206E+00  0.19575108E+00  0.19528346E+00
  0.19482943E+00  0.19438906E+00  0.19396233E+00  0.19354908E+00  0.19314904E+00
  0.19276184E+00  0.19238700E+00  0.19202393E+00  0.19167196E+00  0.19133031E+00
  0.19099815E+00  0.19067455E+00  0.19035855E+00  0.19004910E+00  0.18974513E+00
  0.18944554E+00  0.18914921E+00  0.18885498E+00  0.18856173E+00  0.18826834E+00
  0.18797371E+00  0.18767678E+00  0.18737651E+00  0.18707196E+00  0.18676221E+00
  0.18644642E+00  0.18612384E+00  0.18579378E+00  0.18545567E+00  0.18510900E+00
  0.18475339E+00  0.18438853E+00  0.18401424E+00  0.18363044E+00  0.18323715E+00
  0.18283450E+00  0.18242270E+00  0.18200210E+00  0.18157310E+00  0.18113621E+00
  0.18069203E+00  0.18024123E+00  0.17978454E+00  0.17932277E+00  0.17885677E+00
  0.17838744E+00  0.17791573E+00  0.17744261E+00  0.17696905E+00  0.17649606E+00
  0.17602463E+00  0.17555573E+00  0.17509033E+00  0.17462935E+00  0.17417368E+00
  0.17372416E+00  0.17328158E+00  0.17284666E+00  0.17242006E+00  0.17200237E+00
  0.17159407E+00  0.17119560E+00  0.17080728E+00  0.17042936E+00  0.17006198E+00
  0.16970520E+00  0.16935898E+00  0.16902319E+00  0.16869761E+00  0.16838193E+00
  0.16807577E+00  0.16777865E+00  0.16749003E+00  0.16720931E+00  0.16693581E+00
  0.16666882E+00  0.16640755E+00  0.16615119E+00  0.16589890E+00  0.16564980E+00
  0.16540302E+00  0.16515766E+00  0.16491283E+00  0.16466767E+00  0.16442131E+00
  0.16417293E+00  0.16392174E+00  0.16366699E+00  0.16340798E+00  0.16314407E+00
  0.16287468E+00  0.16259930E+00  0.16231749E+00  0.16202887E+00  0.16173316E+00
 gradient corrections used for XC
           5
 core charge-density (partial)
  0.89412793E+00  0.89372839E+00  0.89253079E+00  0.89053819E+00  0.88775564E+00
  0.88419023E+00  0.87985098E+00  0.87474886E+00  0.86889673E+00  0.86230926E+00
  0.85500291E+00  0.84699582E+00  0.83830777E+00  0.82896008E+00  0.81897554E+00
  0.80837830E+00  0.79719376E+00  0.78544852E+00  0.77317025E+00  0.76038755E+00
  0.74712989E+00  0.73342749E+00  0.71931118E+00  0.70481233E+00  0.68996268E+00
  0.67479430E+00  0.65933941E+00  0.64363033E+00  0.62769933E+00  0.61157855E+00
  0.59529988E+00  0.57889488E+00  0.56239468E+00  0.54582990E+00  0.52923053E+00
  0.51262588E+00  0.49604452E+00  0.47951416E+00  0.46306162E+00  0.44671277E+00
  0.43049246E+00  0.41442449E+00  0.39853154E+00  0.38283516E+00  0.36735574E+00
  0.35211245E+00  0.33712326E+00  0.32240490E+00  0.30797285E+00  0.29384136E+00
  0.28002341E+00  0.26653075E+00  0.25337391E+00  0.24056216E+00  0.22810361E+00
  0.21600516E+00  0.20427256E+00  0.19291044E+00  0.18192231E+00  0.17131066E+00
  0.16107689E+00  0.15122147E+00  0.14174389E+00  0.13264273E+00  0.12391573E+00
  0.11555979E+00  0.10757105E+00  0.99944928E-01  0.92676154E-01  0.85758834E-01
  0.79186489E-01  0.72952105E-01  0.67048178E-01  0.61466765E-01  0.56199523E-01
  0.51237762E-01  0.46572484E-01  0.42194428E-01  0.38094111E-01  0.34261871E-01
  0.30687903E-01  0.27362302E-01  0.24275091E-01  0.21416264E-01  0.18775816E-01
  0.16343772E-01  0.14110219E-01  0.12065333E-01  0.10199407E-01  0.85028707E-02
  0.69663169E-02  0.55805200E-02  0.43364557E-02  0.32253174E-02  0.22385319E-02
  0.13677724E-02  0.60497131E-03 -0.57670360E-04 -0.62767376E-03 -0.11122752E-02
 -0.15184202E-02 -0.18527595E-02 -0.21216458E-02 -0.23311321E-02 -0.24869713E-02
 -0.25946166E-02 -0.26592237E-02 -0.26856529E-02 -0.26784735E-02 -0.26419677E-02
 -0.25801366E-02 -0.24967055E-02 -0.23951316E-02 -0.22786105E-02 -0.21500848E-02
 -0.20122519E-02 -0.18675733E-02 -0.17182832E-02 -0.15663985E-02 -0.14137278E-02
 -0.12618817E-02 -0.11122827E-02 -0.96617506E-03 -0.82463492E-03 -0.68858036E-03
 -0.55878138E-03 -0.43586981E-03 -0.32034899E-03 -0.21260344E-03 -0.11290821E-03
 -0.21438040E-04  0.61723715E-04  0.13657645E-03  0.20319395E-03  0.26171639E-03
  0.31234260E-03  0.35532273E-03  0.39095121E-03  0.41956009E-03  0.44151280E-03
  0.45719819E-03  0.46702497E-03  0.47141661E-03  0.47080643E-03  0.46563326E-03
  0.45633731E-03  0.44335646E-03  0.42712290E-03  0.40806012E-03  0.38658017E-03
  0.36308133E-03  0.33794598E-03  0.31153890E-03  0.28420574E-03  0.25627178E-03
  0.22804100E-03  0.19979535E-03  0.17179424E-03  0.14427423E-03  0.11744900E-03
  0.91509379E-04  0.66623622E-04  0.42937822E-04  0.20576446E-04 -0.35699893E-06
 -0.19779196E-04 -0.37626147E-04 -0.53852227E-04 -0.68429169E-04 -0.81344986E-04
 -0.92602862E-04 -0.10222000E-03 -0.11022644E-03 -0.11666389E-03 -0.12158455E-03
 -0.12504987E-03 -0.12712948E-03 -0.12789993E-03 -0.12744368E-03 -0.12584795E-03
 -0.12320367E-03 -0.11960452E-03 -0.11514596E-03 -0.10992431E-03 -0.10403593E-03
 -0.97576433E-04 -0.90639928E-04 -0.83318384E-04 -0.75701007E-04 -0.67873700E-04
 -0.59918579E-04 -0.51913550E-04 -0.43931953E-04 -0.36042253E-04 -0.28307801E-04
 -0.20786642E-04 -0.13531379E-04 -0.65890910E-05 -0.12928321E-08  0.61960514E-05
  0.11972478E-04  0.17302933E-04  0.22167640E-04  0.26551942E-04  0.30446109E-04
  0.33845117E-04  0.36748409E-04  0.39159628E-04  0.41086343E-04  0.42539750E-04
  0.43534372E-04  0.44087740E-04  0.44220082E-04  0.43953997E-04  0.43314137E-04
  0.42326890E-04  0.41020063E-04  0.39422577E-04  0.37564172E-04  0.35475116E-04
  0.33185929E-04  0.30727125E-04  0.28128962E-04  0.25421211E-04  0.22632940E-04
  0.19792320E-04  0.16926441E-04  0.14061155E-04  0.11220928E-04  0.84287202E-05
  0.57058797E-05  0.30720526E-05  0.54511544E-06 -0.18588764E-05 -0.41257241E-05
 -0.62431031E-05 -0.82005658E-05 -0.99895295E-05 -0.11603249E-04 -0.13036779E-04
 -0.14286918E-04 -0.15352153E-04 -0.16232579E-04 -0.16929821E-04 -0.17446942E-04
 -0.17788351E-04 -0.17959695E-04 -0.17967753E-04 -0.17820329E-04 -0.17526136E-04
 -0.17094677E-04 -0.16536140E-04 -0.15861270E-04 -0.15081265E-04 -0.14207658E-04
 -0.13252211E-04 -0.12226805E-04 -0.11143344E-04 -0.10013651E-04 -0.88493804E-05
 -0.76619314E-05 -0.64623664E-05 -0.52613377E-05 -0.40690205E-05 -0.28950528E-05
 -0.17484815E-05 -0.63771728E-06  0.42950528E-06  0.14461590E-05  0.24059488E-05
  0.33033302E-05  0.41335197E-05  0.48924997E-05  0.55770170E-05  0.61845750E-05
  0.67134202E-05  0.71625242E-05  0.75315595E-05  0.78208720E-05  0.80314487E-05
  0.81648818E-05  0.82233301E-05  0.82094764E-05  0.81264841E-05  0.79779507E-05
  0.77678604E-05  0.75005355E-05  0.71805869E-05  0.68128655E-05  0.64024119E-05
  0.59544086E-05  0.54741320E-05  0.49669058E-05  0.44380562E-05  0.38928687E-05
  0.33365473E-05  0.27741756E-05  0.22106808E-05  0.16508006E-05  0.10990521E-05
  0.55970459E-06  0.36755192E-07 -0.46609274E-06 -0.94544760E-06 -0.13982445E-05
 -0.18217569E-05 -0.22136055E-05 -0.25717635E-05 -0.28945590E-05 -0.31806749E-05
 -0.34291454E-05 -0.36393501E-05 -0.38110060E-05 -0.39441562E-05 -0.40391573E-05
 -0.40966643E-05 -0.41176143E-05 -0.41032076E-05 -0.40548884E-05 -0.39743239E-05
 -0.38633822E-05 -0.37241099E-05 -0.35587089E-05 -0.33695127E-05 -0.31589625E-05
 -0.29295842E-05 -0.26839642E-05 -0.24247267E-05 -0.21545108E-05 -0.18759494E-05
 -0.15916472E-05 -0.13041618E-05 -0.10159839E-05 -0.72952032E-06 -0.44707719E-06
 -0.17084527E-06  0.97113631E-07  0.35487869E-06  0.60068043E-06  0.83290967E-06
  0.10501247E-05  0.12510571E-05  0.14346156E-05  0.15998890E-05  0.17461467E-05
  0.18728390E-05  0.19795942E-05  0.20662165E-05  0.21326806E-05  0.21791265E-05
  0.22058526E-05  0.22133077E-05  0.22020822E-05  0.21728990E-05  0.21266024E-05
  0.20641479E-05  0.19865901E-05  0.18950715E-05  0.17908098E-05  0.16750858E-05
  0.15492311E-05  0.14146155E-05  0.12726346E-05  0.11246982E-05  0.97221769E-06
  0.81659545E-06  0.65921334E-06  0.50142242E-06  0.34453310E-06  0.18980584E-06
  0.38442729E-07 -0.10842039E-06 -0.24972083E-06 -0.38447533E-06 -0.51178536E-06
 -0.63084162E-06 -0.74092776E-06 -0.84142311E-06 -0.93180465E-06 -0.10116481E-05
 -0.10806283E-05 -0.11385186E-05 -0.11851895E-05 -0.12206068E-05 -0.12448288E-05
 -0.12580031E-05 -0.12603623E-05 -0.12522198E-05 -0.12339645E-05 -0.12060557E-05
 -0.11690169E-05 -0.11234297E-05 -0.10699273E-05 -0.10091882E-05 -0.94192859E-06
 -0.86889629E-06 -0.79086321E-06 -0.70861859E-06 -0.62296215E-06 -0.53469728E-06
 -0.44462452E-06 -0.35353516E-06 -0.26220521E-06 -0.17138954E-06 -0.81816492E-07
  0.58172090E-08  0.90851123E-07  0.17266534E-06  0.25068425E-06  0.32437990E-06
  0.39327483E-06  0.45694444E-06  0.51501884E-06  0.56718427E-06  0.61318396E-06
  0.65281857E-06  0.68594613E-06  0.71248149E-06  0.73239544E-06  0.74571328E-06
  0.75251308E-06  0.75292357E-06  0.74712161E-06  0.73532943E-06  0.71781157E-06
  0.69487153E-06  0.66684826E-06  0.63411239E-06  0.59706242E-06  0.55612068E-06
  0.51172931E-06  0.46434613E-06  0.41444052E-06  0.36248935E-06  0.30897291E-06
  0.25437096E-06  0.19915890E-06  0.14380407E-06  0.88762178E-07  0.34473999E-07
 -0.18637792E-07 -0.70171510E-07 -0.11974913E-06 -0.16701867E-06 -0.21165635E-06
 -0.25336838E-06 -0.29189256E-06 -0.32699953E-06 -0.35849373E-06 -0.38621405E-06
 -0.41003425E-06 -0.42986300E-06 -0.44564372E-06 -0.45735409E-06 -0.46500535E-06
 -0.46864131E-06 -0.46833712E-06 -0.46419790E-06 -0.45635703E-06 -0.44497441E-06
 -0.43023445E-06 -0.41234396E-06 -0.39152989E-06 -0.36803699E-06 -0.34212539E-06
 -0.31406812E-06 -0.28414855E-06 -0.25265789E-06 -0.21989260E-06 -0.18615192E-06
 -0.15173535E-06 -0.11694029E-06 -0.82059636E-07 -0.47379590E-07 -0.13177510E-07
  0.20280091E-07  0.52739421E-07  0.83961119E-07  0.11372183E-06  0.14181558E-06
  0.16805502E-06  0.19227246E-06  0.21432072E-06  0.23407379E-06  0.25142737E-06
  0.26629912E-06  0.27862879E-06  0.28837819E-06  0.29553092E-06  0.30009199E-06
  0.30208723E-06  0.30156260E-06  0.29858334E-06  0.29323293E-06  0.28561201E-06
  0.27583716E-06  0.26403957E-06  0.25036361E-06  0.23496539E-06  0.21801121E-06
  0.19967596E-06  0.18014153E-06  0.15959518E-06  0.13822790E-06  0.11623278E-06
  0.93803435E-07  0.71132402E-07  0.48409641E-07  0.25821062E-07  0.35471236E-08
 -0.18238483E-07 -0.39370075E-07 -0.59691123E-07 -0.79055294E-07 -0.97327387E-07
 -0.11438417E-06 -0.13011507E-06 -0.14442280E-06 -0.15722382E-06 -0.16844867E-06
 -0.17804224E-06 -0.18596385E-06 -0.19218727E-06 -0.19670059E-06 -0.19950600E-06
 -0.20061942E-06 -0.20007008E-06 -0.19790001E-06 -0.19416334E-06 -0.18892567E-06
 -0.18226323E-06 -0.17426205E-06 -0.16501706E-06 -0.15463108E-06 -0.14321386E-06
 -0.13088104E-06 -0.11775308E-06 -0.10395416E-06 -0.89611153E-07 -0.74852495E-07
 -0.59807149E-07 -0.44603541E-07 -0.29368551E-07 -0.14226517E-07  0.70169970E-09
  0.15299615E-07  0.29455958E-07  0.43065455E-07  0.56029543E-07  0.68257012E-07
  0.79664583E-07  0.90177404E-07  0.99729464E-07  0.10826394E-06  0.11573344E-06
  0.12210022E-06  0.12733620E-06  0.13142309E-06  0.13435223E-06  0.13612450E-06
  0.13675012E-06  0.13624832E-06  0.13464706E-06  0.13198255E-06  0.12829885E-06
  0.12364728E-06  0.11808592E-06  0.11167897E-06  0.10449610E-06  0.96611773E-07
  0.88104570E-07  0.79056452E-07  0.69552036E-07  0.59677859E-07  0.49521645E-07
  0.39171571E-07  0.28715553E-07  0.18240543E-07  0.78318496E-08 -0.24275111E-08
 -0.12457438E-07 -0.22181326E-07 -0.31526613E-07 -0.40425277E-07 -0.48814291E-07
 -0.56636028E-07 -0.63838612E-07 -0.70376220E-07 -0.76209324E-07 -0.81304884E-07
 -0.85636480E-07 -0.89184391E-07 -0.91935617E-07 -0.93883851E-07 -0.95029389E-07
 -0.95379001E-07 -0.94945745E-07 -0.93748734E-07 -0.91812861E-07 -0.89168487E-07
 -0.85851087E-07 -0.81900859E-07 -0.77362313E-07 -0.72283825E-07 -0.66717170E-07
 -0.60717042E-07 -0.54340556E-07 -0.47646739E-07 -0.40696021E-07 -0.33549720E-07
 -0.26269534E-07 -0.18917035E-07 -0.11553178E-07 -0.42378223E-08  0.29707251E-08
  0.10016152E-07  0.16844551E-07  0.23404811E-07  0.29648968E-07  0.35532533E-07
  0.41014783E-07  0.46059015E-07  0.50632762E-07  0.54707974E-07  0.58261161E-07
  0.61273491E-07  0.63730852E-07  0.65623879E-07  0.66947937E-07  0.67703069E-07
  0.67893903E-07  0.67529534E-07  0.66623364E-07  0.65192910E-07  0.63259590E-07
  0.60848474E-07  0.57988018E-07  0.54709766E-07  0.51048046E-07  0.47039633E-07
  0.42723418E-07  0.38140046E-07  0.33331564E-07  0.28341055E-07  0.23212270E-07
  0.17989268E-07  0.12716054E-07  0.74362257E-08  0.21926323E-08 -0.29729564E-08
 -0.80201666E-08 -0.12910319E-07 -0.17606707E-07 -0.22074859E-07 -0.26282770E-07
 -0.30201120E-07 -0.33803454E-07 -0.37066346E-07 -0.39969533E-07 -0.42496018E-07
 -0.44632149E-07 -0.46367669E-07 -0.47695734E-07 -0.48612912E-07 -0.49119141E-07
 -0.49217678E-07 -0.48915007E-07 -0.48220732E-07 -0.47147441E-07 -0.45710556E-07
 -0.43928156E-07 -0.41820782E-07 -0.39411234E-07 -0.36724343E-07 -0.33786736E-07
 -0.30626593E-07 -0.27273388E-07 -0.23757637E-07 -0.20110625E-07 -0.16364149E-07
 -0.12550250E-07 -0.87009513E-08 -0.48480010E-08 -0.10226233E-08  0.27447244E-08
  0.64245826E-08  0.99887091E-08  0.13410285E-07  0.16664105E-07  0.19726753E-07
  0.22576757E-07  0.25194733E-07  0.27563497E-07  0.29668174E-07  0.31496270E-07
  0.33037737E-07  0.34285009E-07  0.35233021E-07  0.35879206E-07  0.36223476E-07
  0.36268176E-07  0.36018028E-07  0.35480048E-07  0.34663457E-07  0.33579561E-07
  0.32241633E-07  0.30664769E-07  0.28865735E-07  0.26862808E-07  0.24675598E-07
  0.22324875E-07  0.19832375E-07  0.17220616E-07  0.14512699E-07  0.11732116E-07
  0.89025507E-08  0.60476896E-08  0.31910284E-08  0.35568760E-09 -0.24357676E-08
 -0.51614992E-08 -0.78005598E-08 -0.10333046E-07 -0.12740243E-07 -0.15004751E-07
 -0.17110610E-07 -0.19043397E-07 -0.20790322E-07 -0.22340303E-07 -0.23684025E-07
 -0.24813988E-07 -0.25724539E-07 -0.26411881E-07 -0.26874081E-07 -0.27111052E-07
 -0.27124521E-07 -0.26917991E-07 -0.26496681E-07 -0.25867454E-07 -0.25038741E-07
 -0.24020444E-07 -0.22823833E-07 -0.21461436E-07 -0.19946912E-07 -0.18294933E-07
 -0.16521038E-07 -0.14641506E-07 -0.12673203E-07 -0.10633444E-07 -0.85398453E-08
 -0.64101752E-08 -0.42622117E-08 -0.21135986E-08  0.18294259E-10  0.21165063E-08
  0.41646160E-08  0.61468643E-08  0.80482708E-08  0.98547422E-08  0.11553171E-07
  0.13131527E-07  0.14578934E-07  0.15885742E-07  0.17043585E-07  0.18045428E-07
  0.18885601E-07  0.19559826E-07  0.20065229E-07  0.20400341E-07  0.20565087E-07
  0.20560767E-07  0.20390022E-07  0.20056793E-07  0.19566272E-07  0.18924837E-07
  0.18139982E-07  0.17220246E-07  0.16175120E-07  0.15014962E-07  0.13750898E-07
  0.12394721E-07  0.10958787E-07  0.94559059E-08  0.78992329E-08  0.63021562E-08
  0.46781863E-08  0.30408462E-08  0.14035616E-08 -0.22044506E-09 -0.18182578E-08
 -0.33773666E-08 -0.48857613E-08 -0.63320213E-08 -0.77053978E-08 -0.89958907E-08
 -0.10194317E-07 -0.11292374E-07 -0.12282691E-07 -0.13158874E-07 -0.13915546E-07
 -0.14548372E-07 -0.15054080E-07 -0.15430468E-07 -0.15676413E-07 -0.15791856E-07
 -0.15777792E-07 -0.15636244E-07 -0.15370232E-07 -0.14983735E-07 -0.14481643E-07
 -0.13869708E-07 -0.13154479E-07 -0.12343245E-07 -0.11443957E-07 -0.10465164E-07
 -0.94159269E-08 -0.83057442E-08 -0.71444661E-08 -0.59422112E-08 -0.47092809E-08
 -0.34560747E-08 -0.21930041E-08 -0.93040971E-09  0.32152150E-09  0.15528356E-08
  0.27538883E-08  0.39154182E-08  0.50286155E-08  0.60851866E-08  0.70774130E-08
  0.79982054E-08  0.88411513E-08  0.96005573E-08  0.10271484E-07  0.10849776E-07
  0.11332083E-07  0.11715876E-07  0.11999453E-07  0.12181948E-07  0.12263319E-07
  0.12244338E-07  0.12126578E-07  0.11912381E-07  0.11604838E-07  0.11207744E-07
  0.10725564E-07  0.10163385E-07  0.95268673E-08  0.88221907E-08  0.80559972E-08
  0.72353313E-08  0.63675778E-08  0.54603979E-08  0.45216633E-08  0.35593902E-08
  0.25816730E-08  0.15966178E-08  0.61227742E-09 -0.36341295E-09 -0.13226976E-08
 -0.22580602E-08 -0.31622813E-08 -0.40284917E-08 -0.48502231E-08 -0.56214547E-08
 -0.63366553E-08 -0.69908210E-08 -0.75795082E-08 -0.80988617E-08 -0.85456375E-08
 -0.89172208E-08 -0.92116379E-08 -0.94275638E-08 -0.95643239E-08 -0.96218903E-08
 -0.96008735E-08 -0.95025085E-08 -0.93286369E-08 -0.90816833E-08 -0.87646284E-08
 -0.83809769E-08 -0.79347230E-08 -0.74303111E-08 -0.68725942E-08 -0.62667893E-08
 -0.56184307E-08 -0.49333212E-08 -0.42174816E-08 -0.34770999E-08 -0.27184786E-08
 -0.19479831E-08 -0.11719896E-08 -0.39683315E-09  0.37124193E-09  0.11261316E-08
  0.18619193E-08  0.25729205E-08  0.32537261E-08  0.38992416E-08  0.45047242E-08
  0.50658163E-08  0.55785754E-08  0.60395001E-08  0.64455529E-08  0.67941779E-08
  0.70833157E-08  0.73114129E-08  0.74774279E-08  0.75808333E-08  0.76216124E-08
  0.76002535E-08  0.75177388E-08  0.73755303E-08  0.71755518E-08  0.69201674E-08
  0.66121567E-08  0.62546871E-08  0.58512833E-08  0.54057942E-08  0.49223580E-08
  0.44053651E-08  0.38594193E-08  0.32892984E-08  0.26999133E-08  0.20962668E-08
  0.14834123E-08  0.86641261E-09  0.25029874E-09 -0.35996973E-09 -0.95954380E-09
 -0.15437226E-08 -0.21079894E-08 -0.26480452E-08 -0.31598411E-08 -0.36396072E-08
 -0.40838794E-08 -0.44895237E-08 -0.48537567E-08 -0.51741642E-08 -0.54487152E-08
 -0.56757738E-08 -0.58541074E-08 -0.59828912E-08 -0.60617101E-08 -0.60905564E-08
 -0.60698252E-08 -0.60003059E-08 -0.58831707E-08 -0.57199608E-08 -0.55125693E-08
 -0.52632212E-08 -0.49744517E-08 -0.46490819E-08 -0.42901924E-08 -0.39010955E-08
 -0.34853054E-08 -0.30465078E-08 -0.25885277E-08 -0.21152973E-08 -0.16308228E-08
 -0.11391514E-08 -0.64433832E-09 -0.15041372E-09  0.33864893E-09  0.81896437E-09
  0.12867656E-08  0.17384329E-08  0.21705207E-08  0.25797837E-08  0.29632001E-08
  0.33179932E-08  0.36416510E-08  0.39319429E-08  0.41869341E-08  0.44049980E-08
  0.45848250E-08  0.47254294E-08  0.48261536E-08  0.48866689E-08  0.49069747E-08
  0.48873939E-08  0.48285669E-08  0.47314426E-08  0.45972666E-08  0.44275680E-08
  0.42241435E-08  0.39890397E-08  0.37245338E-08  0.34331124E-08  0.31174489E-08
  0.27803800E-08  0.24248807E-08  0.20540387E-08  0.16710286E-08  0.12790847E-08
  0.88147495E-09  0.48147372E-09  0.82335740E-10 -0.31272998E-09 -0.70058539E-09
 kinetic energy density (partial)
  0.13455190E+03  0.13449359E+03  0.13431881E+03  0.13402798E+03  0.13362182E+03
  0.13310131E+03  0.13246772E+03  0.13172258E+03  0.13086770E+03  0.12990513E+03
  0.12883718E+03  0.12766640E+03  0.12639558E+03  0.12502769E+03  0.12356597E+03
  0.12201379E+03  0.12037476E+03  0.11865263E+03  0.11685130E+03  0.11497484E+03
  0.11302741E+03  0.11101331E+03  0.10893693E+03  0.10680272E+03  0.10461524E+03
  0.10237904E+03  0.10009877E+03  0.97779044E+02  0.95424516E+02  0.93039817E+02
  0.90629556E+02  0.88198304E+02  0.85750583E+02  0.83290850E+02  0.80823484E+02
  0.78352779E+02  0.75882929E+02  0.73418019E+02  0.70962015E+02  0.68518753E+02
  0.66091937E+02  0.63685123E+02  0.61301719E+02  0.58944976E+02  0.56617982E+02
  0.54323662E+02  0.52064766E+02  0.49843876E+02  0.47663396E+02  0.45525553E+02
  0.43432398E+02  0.41385804E+02  0.39387465E+02  0.37438900E+02  0.35541454E+02
  0.33696298E+02  0.31904436E+02  0.30166703E+02  0.28483774E+02  0.26856165E+02
  0.25284237E+02  0.23768203E+02  0.22308136E+02  0.20903966E+02  0.19555494E+02
  0.18262395E+02  0.17024225E+02  0.15840425E+02  0.14710332E+02  0.13633180E+02
  0.12608114E+02  0.11634188E+02  0.10710381E+02  0.98355951E+01  0.90086688E+01
  0.82283802E+01  0.74934545E+01  0.68025704E+01  0.61543662E+01  0.55474461E+01
  0.49803862E+01  0.44517401E+01  0.39600446E+01  0.35038250E+01  0.30816004E+01
  0.26918883E+01  0.23332098E+01  0.20040934E+01  0.17030795E+01  0.14287245E+01
  0.11796041E+01  0.95431696E+00  0.75148763E+00  0.56976963E+00  0.40784798E+00
  0.26444161E+00  0.13830543E+00  0.28232246E-01 -0.66945597E-01 -0.14835485E+00
 -0.21708016E+00 -0.27416312E+00 -0.32060155E+00 -0.35734893E+00 -0.38531408E+00
 -0.40536099E+00 -0.41830886E+00 -0.42493228E+00 -0.42596155E+00 -0.42208321E+00
 -0.41394064E+00 -0.40213483E+00 -0.38722524E+00 -0.36973077E+00 -0.35013086E+00
 -0.32886660E+00 -0.30634202E+00 -0.28292535E+00 -0.25895038E+00 -0.23471790E+00
 -0.21049712E+00 -0.18652712E+00 -0.16301842E+00 -0.14015445E+00 -0.11809305E+00
 -0.96968052E-01 -0.76890773E-01 -0.57951508E-01 -0.40221035E-01 -0.23752077E-01
 -0.85807408E-02  0.52720824E-02  0.17799345E-01  0.29006516E-01  0.38910301E-01
  0.47537403E-01  0.54923337E-01  0.61111294E-01  0.66151063E-01  0.70097998E-01
  0.73012057E-01  0.74956879E-01  0.75998936E-01  0.76206730E-01  0.75650055E-01
  0.74399310E-01  0.72524874E-01  0.70096534E-01  0.67182967E-01  0.63851273E-01
  0.60166569E-01  0.56191620E-01  0.51986528E-01  0.47608462E-01  0.43111438E-01
  0.38546134E-01  0.33959749E-01  0.29395903E-01  0.24894565E-01  0.20492018E-01
  0.16220858E-01  0.12110014E-01  0.81848027E-02  0.44669962E-02  0.97492158E-03
 -0.22764272E-02 -0.52752582E-02 -0.80128367E-02 -0.10483327E-01 -0.12683625E-01
 -0.14613180E-01 -0.16273815E-01 -0.17669534E-01 -0.18806336E-01 -0.19692018E-01
 -0.20335985E-01 -0.20749059E-01 -0.20943288E-01 -0.20931765E-01 -0.20728445E-01
 -0.20347971E-01 -0.19805510E-01 -0.19116589E-01 -0.18296947E-01 -0.17362389E-01
 -0.16328656E-01 -0.15211295E-01 -0.14025550E-01 -0.12786255E-01 -0.11507741E-01
 -0.10203747E-01 -0.88873540E-02 -0.75709131E-02 -0.62659955E-02 -0.49833464E-02
 -0.37328495E-02 -0.25235007E-02 -0.13633902E-02 -0.25969312E-03  0.78133289E-03
  0.17543418E-02  0.26548870E-02  0.34794030E-02  0.42251808E-02  0.48903384E-02
  0.54737867E-02  0.59751909E-02  0.63949282E-02  0.67340431E-02  0.69941995E-02
  0.71776306E-02  0.72870878E-02  0.73257884E-02  0.72973622E-02  0.72057984E-02
  0.70553925E-02  0.68506942E-02  0.65964552E-02  0.62975801E-02  0.59590770E-02
  0.55860114E-02  0.51834614E-02  0.47564761E-02  0.43100354E-02  0.38490138E-02
  0.33781458E-02  0.29019955E-02  0.24249282E-02  0.19510855E-02  0.14843636E-02
  0.10283946E-02  0.58653080E-03  0.16183209E-03 -0.24294359E-03 -0.62534703E-03
 -0.98324163E-03 -0.13148047E-02 -0.16185261E-02 -0.18932046E-02 -0.21379418E-02
 -0.23521344E-02 -0.25354637E-02 -0.26878843E-02 -0.28096105E-02 -0.29011021E-02
 -0.29630477E-02 -0.29963484E-02 -0.30020998E-02 -0.29815737E-02 -0.29361989E-02
 -0.28675422E-02 -0.27772888E-02 -0.26672231E-02 -0.25392091E-02 -0.23951719E-02
 -0.22370788E-02 -0.20669213E-02 -0.18866982E-02 -0.16983985E-02 -0.15039859E-02
 -0.13053840E-02 -0.11044629E-02 -0.90302565E-03 -0.70279763E-03 -0.50541550E-03
 -0.31241817E-03 -0.12523874E-03  0.54802349E-04  0.22650293E-03  0.38878357E-03
  0.54069079E-03  0.68139921E-03  0.81021255E-03  0.92656352E-03  0.10300128E-02
  0.11202468E-02  0.11970750E-02  0.12604259E-02  0.13103423E-02  0.13469764E-02
  0.13705834E-02  0.13815153E-02  0.13802139E-02  0.13672030E-02  0.13430813E-02
  0.13085137E-02  0.12642236E-02  0.12109844E-02  0.11496110E-02  0.10809517E-02
  0.10058798E-02  0.92528554E-03  0.84006802E-03  0.75112778E-03  0.65935931E-03
  0.56564409E-03  0.47084393E-03  0.37579484E-03  0.28130128E-03  0.18813089E-03
  0.97009786E-04  0.86183346E-05 -0.76412549E-04 -0.15750453E-03 -0.23413445E-03
 -0.30583641E-03 -0.37220324E-03 -0.43288754E-03 -0.48760212E-03 -0.53612000E-03
 -0.57827389E-03 -0.61395523E-03 -0.64311285E-03 -0.66575108E-03 -0.68192769E-03
 -0.69175129E-03 -0.69537859E-03 -0.69301124E-03 -0.68489253E-03 -0.67130385E-03
 -0.65256095E-03 -0.62901014E-03 -0.60102430E-03 -0.56899890E-03 -0.53334796E-03
 -0.49450000E-03 -0.45289404E-03 -0.40897567E-03 -0.36319319E-03 -0.31599389E-03
 -0.26782049E-03 -0.21910767E-03 -0.17027890E-03 -0.12174340E-03 -0.73893339E-04
 -0.27101263E-04  0.18282188E-04  0.61930356E-04  0.10354234E-03  0.14284454E-03
  0.17959186E-03  0.21356873E-03  0.24458979E-03  0.27250034E-03  0.29717651E-03
  0.31852517E-03  0.33648368E-03  0.35101925E-03  0.36212826E-03  0.36983523E-03
  0.37419165E-03  0.37527471E-03  0.37318572E-03  0.36804851E-03  0.36000764E-03
  0.34922658E-03  0.33588570E-03  0.32018025E-03  0.30231831E-03  0.28251866E-03
  0.26100866E-03  0.23802212E-03  0.21379720E-03  0.18857435E-03  0.16259429E-03
  0.13609604E-03  0.10931505E-03  0.82481435E-04  0.55818271E-04  0.29540020E-04
  0.38510833E-05 -0.21055526E-04 -0.44999375E-04 -0.67813665E-04 -0.89346140E-04
 -0.10945985E-03 -0.12803378E-03 -0.14496330E-03 -0.16016051E-03 -0.17355441E-03
 -0.18509093E-03 -0.19473288E-03 -0.20245964E-03 -0.20826690E-03 -0.21216610E-03
 -0.21418392E-03 -0.21436153E-03 -0.21275385E-03 -0.20942868E-03 -0.20446572E-03
 -0.19795560E-03 -0.18999879E-03 -0.18070449E-03 -0.17018950E-03 -0.15857702E-03
 -0.14599548E-03 -0.13257735E-03 -0.11845791E-03 -0.10377412E-03 -0.88663441E-04
 -0.73262703E-04 -0.57707039E-04 -0.42128831E-04 -0.26656729E-04 -0.11414717E-04
  0.34787421E-05  0.17911506E-04  0.31778470E-04  0.44982207E-04  0.57433533E-04
  0.69051983E-04  0.79766206E-04  0.89514281E-04  0.98243936E-04  0.10591270E-03
  0.11248794E-03  0.11794689E-03  0.12227649E-03  0.12547325E-03  0.12754302E-03
  0.12850063E-03  0.12836954E-03  0.12718143E-03  0.12497565E-03  0.12179875E-03
  0.11770386E-03  0.11275011E-03  0.10700195E-03  0.10052850E-03  0.93402845E-04
  0.85701375E-04  0.77503032E-04  0.68888626E-04  0.59940126E-04  0.50739964E-04
  0.41370363E-04  0.31912675E-04  0.22446748E-04  0.13050327E-04  0.37984800E-05
 -0.52369331E-05 -0.13987753E-04 -0.22389972E-04 -0.30384137E-04 -0.37915706E-04
 -0.44935358E-04 -0.51399249E-04 -0.57269221E-04 -0.62512956E-04 -0.67104083E-04
 -0.71022229E-04 -0.74253031E-04 -0.76788086E-04 -0.78624865E-04 -0.79766579E-04
 -0.80221999E-04 -0.80005243E-04 -0.79135522E-04 -0.77636848E-04 -0.75537721E-04
 -0.72870778E-04 -0.69672425E-04 -0.65982444E-04 -0.61843587E-04 -0.57301153E-04
 -0.52402558E-04 -0.47196897E-04 -0.41734508E-04 -0.36066531E-04 -0.30244476E-04
 -0.24319801E-04 -0.18343492E-04 -0.12365673E-04 -0.64352131E-05 -0.59937274E-06
  0.50965420E-05  0.10609494E-04  0.15899005E-04  0.20927420E-04  0.25660136E-04
  0.30065812E-04  0.34116534E-04  0.37787959E-04  0.41059422E-04  0.43914012E-04
  0.46338614E-04  0.48323925E-04  0.49864433E-04  0.50958369E-04  0.51607631E-04
  0.51817676E-04  0.51597395E-04  0.50958952E-04  0.49917612E-04  0.48491537E-04
  0.46701577E-04  0.44571029E-04  0.42125397E-04  0.39392130E-04  0.36400356E-04
  0.33180605E-04  0.29764531E-04  0.26184630E-04  0.22473957E-04  0.18665847E-04
  0.14793640E-04  0.10890410E-04  0.69887089E-05  0.31203107E-05 -0.68402173E-06
 -0.43947633E-05 -0.79838353E-05 -0.11424798E-04 -0.14693025E-04 -0.17765862E-04
 -0.20622761E-04 -0.23245398E-04 -0.25617769E-04 -0.27726269E-04 -0.29559742E-04
 -0.31109516E-04 -0.32369416E-04 -0.33335760E-04 -0.34007325E-04 -0.34385309E-04
 -0.34473259E-04 -0.34276994E-04 -0.33804503E-04 -0.33065836E-04 -0.32072971E-04
 -0.30839680E-04 -0.29381373E-04 -0.27714939E-04 -0.25858575E-04 -0.23831615E-04
 -0.21654342E-04 -0.19347809E-04 -0.16933648E-04 -0.14433887E-04 -0.11870758E-04
 -0.92665207E-05 -0.66432757E-05 -0.40227936E-05 -0.14263457E-05  0.11254567E-05
  0.36128134E-05  0.60168777E-05  0.83198872E-05  0.10505284E-04  0.12557820E-04
  0.14463655E-04  0.16210434E-04  0.17787357E-04  0.19185232E-04  0.20396514E-04
  0.21415332E-04  0.22237497E-04  0.22860504E-04  0.23283513E-04  0.23507321E-04
  0.23534324E-04  0.23368457E-04  0.23015136E-04  0.22481180E-04  0.21774727E-04
  0.20905139E-04  0.19882904E-04  0.18719526E-04  0.17427410E-04  0.16019744E-04
  0.14510378E-04  0.12913695E-04  0.11244488E-04  0.95178286E-05  0.77489423E-05
  0.59530815E-05  0.41454021E-05  0.23408437E-05  0.55401322E-06 -0.12009257E-05
 -0.29103578E-05 -0.45613146E-05 -0.61415661E-05 -0.76397034E-05 -0.90452149E-05
 -0.10348552E-04 -0.11541186E-04 -0.12615659E-04 -0.13565618E-04 -0.14385847E-04
 -0.15072284E-04 -0.15622032E-04 -0.16033360E-04 -0.16305688E-04 -0.16439577E-04
 -0.16436694E-04 -0.16299780E-04 -0.16032608E-04 -0.15639927E-04 -0.15127411E-04
 -0.14501587E-04 -0.13769775E-04 -0.12940003E-04 -0.12020937E-04 -0.11021795E-04
 -0.99522586E-05 -0.88223929E-05 -0.76425524E-05 -0.64232937E-05 -0.51752868E-05
 -0.39092262E-05 -0.26357447E-05 -0.13653287E-05 -0.10823659E-06  0.11255793E-05
  0.23265474E-05  0.34855463E-05  0.45939697E-05  0.56437859E-05  0.66275913E-05
  0.75386582E-05  0.83709760E-05  0.91192856E-05  0.97791082E-05  0.10346765E-04
  0.10819395E-04  0.11194957E-04  0.11472235E-04  0.11650831E-04  0.11731154E-04
  0.11714398E-04  0.11602520E-04  0.11398211E-04  0.11104858E-04  0.10726504E-04
  0.10267807E-04  0.97339845E-05  0.91307655E-05  0.84643338E-05  0.77412694E-05
  0.69684883E-05  0.61531804E-05  0.53027466E-05  0.44247351E-05  0.35267783E-05
  0.26165290E-05  0.17015992E-05  0.78949867E-06 -0.11242290E-06 -0.99703273E-06
 -0.18574683E-05 -0.26871876E-05 -0.34800161E-05 -0.42301898E-05 -0.49323944E-05
 -0.55817994E-05 -0.61740888E-05 -0.67054866E-05 -0.71727768E-05 -0.75733199E-05
 -0.79050636E-05 -0.81665485E-05 -0.83569096E-05 -0.84758724E-05 -0.85237443E-05
 -0.85014023E-05 -0.84102753E-05 -0.82523229E-05 -0.80300100E-05 -0.77462785E-05
 -0.74045142E-05 -0.70085127E-05 -0.65624407E-05 -0.60707964E-05 -0.55383672E-05
 -0.49701859E-05 -0.43714862E-05 -0.37476567E-05 -0.31041950E-05 -0.24466611E-05
 -0.17806319E-05 -0.11116558E-05 -0.44520858E-06  0.21334961E-06  0.85881528E-06
  0.14861809E-05  0.20906719E-05  0.26677809E-05  0.32132996E-05  0.37233476E-05
  0.41943977E-05  0.46232986E-05  0.50072936E-05  0.53440363E-05  0.56316020E-05
  0.58684966E-05  0.60536609E-05  0.61864718E-05  0.62667399E-05  0.62947037E-05
  0.62710204E-05  0.61967535E-05  0.60733572E-05  0.59026585E-05  0.56868357E-05
  0.54283953E-05  0.51301459E-05  0.47951709E-05  0.44267988E-05  0.40285725E-05
  0.36042167E-05  0.31576053E-05  0.26927277E-05  0.22136544E-05  0.17245030E-05
  0.12294044E-05  0.73246911E-06  0.23775455E-06 -0.25076681E-06 -0.72923803E-06
 -0.11939469E-05 -0.16413534E-05 -0.20681154E-05 -0.24711125E-05 -0.28474674E-05
 -0.31945650E-05 -0.35100693E-05 -0.37919378E-05 -0.40384329E-05 -0.42481312E-05
 -0.44199296E-05 -0.45530491E-05 -0.46470359E-05 -0.47017598E-05 -0.47174098E-05
 -0.46944876E-05 -0.46337985E-05 -0.45364400E-05 -0.44037882E-05 -0.42374823E-05
 -0.40394072E-05 -0.38116743E-05 -0.35566010E-05 -0.32766885E-05 -0.29745988E-05
 -0.26531311E-05 -0.23151962E-05 -0.19637922E-05 -0.16019784E-05 -0.12328496E-05
 -0.85951121E-06 -0.48505333E-06 -0.11252661E-06  0.25508195E-06  0.61487198E-06
  0.96405179E-06  0.12999591E-05  0.16200806E-05  0.19220697E-05  0.22037629E-05
  0.24631944E-05  0.26986088E-05  0.29084720E-05  0.30914802E-05  0.32465666E-05
  0.33729066E-05  0.34699205E-05  0.35372745E-05  0.35748793E-05  0.35828877E-05
  0.35616888E-05  0.35119020E-05  0.34343679E-05  0.33301384E-05  0.32004651E-05
  0.30467858E-05  0.28707103E-05  0.26740050E-05  0.24585757E-05  0.22264508E-05
  0.19797625E-05  0.17207286E-05  0.14516328E-05  0.11748058E-05  0.89260517E-06
  0.60739674E-06  0.32153478E-06  0.37343510E-07 -0.24290129E-06 -0.51698983E-06
 -0.78279517E-06 -0.10382891E-05 -0.12815569E-05 -0.15108113E-05 -0.17244048E-05
 -0.19208410E-05 -0.20987841E-05 -0.22570677E-05 -0.23947013E-05 -0.25108761E-05
 -0.26049684E-05 -0.26765419E-05 -0.27253490E-05 -0.27513293E-05 -0.27546078E-05
 -0.27354909E-05 -0.26944614E-05 -0.26321720E-05 -0.25494377E-05 -0.24472265E-05
 -0.23266495E-05 -0.21889501E-05 -0.20354917E-05 -0.18677454E-05 -0.16872760E-05
 -0.14957284E-05 -0.12948134E-05 -0.10862922E-05 -0.87196245E-06 -0.65364240E-06
 -0.43315645E-06 -0.21232019E-06  0.70741002E-08  0.22327153E-06  0.43456822E-06
  0.63932427E-06  0.83597610E-06  0.10230479E-05  0.11991624E-05  0.13630502E-05
  0.15135591E-05  0.16496610E-05  0.17704589E-05  0.18751921E-05  0.19632404E-05
  0.20341271E-05  0.20875209E-05  0.21232362E-05  0.21412330E-05  0.21416149E-05
  0.21246263E-05  0.20906483E-05  0.20401939E-05  0.19739020E-05  0.18925305E-05
  0.17969481E-05  0.16881267E-05  0.15671309E-05  0.14351092E-05  0.12932831E-05
  0.11429361E-05  0.98540270E-06  0.82205709E-06  0.65430122E-06  0.48355326E-06
  0.31123595E-06  0.13876508E-06 -0.32461881E-07 -0.20107672E-06 -0.36575116E-06
 -0.52520697E-06 -0.67822562E-06 -0.82365722E-06 -0.96042892E-06 -0.10875524E-05
 -0.12041309E-05 -0.13093648E-05 -0.14025571E-05 -0.14831176E-05 -0.15505659E-05
 -0.16045342E-05 -0.16447683E-05 -0.16711285E-05 -0.16835890E-05 -0.16822364E-05
 -0.16672680E-05 -0.16389880E-05 -0.15978041E-05 -0.15442229E-05 -0.14788439E-05
 -0.14023541E-05 -0.13155209E-05 -0.12191849E-05 -0.11142523E-05 -0.10016865E-05
 -0.88249956E-06 -0.75774375E-06 -0.62850214E-06 -0.49587964E-06 -0.36099379E-06
 -0.22496555E-06 -0.88910273E-07  0.46071232E-07  0.17890139E-06  0.30853422E-06
  0.43396336E-06  0.55422963E-06  0.66842816E-06  0.77571496E-06  0.87531293E-06
  0.96651723E-06  0.10487000E-05  0.11213144E-05  0.11838982E-05  0.12360757E-05
  0.12775607E-05  0.13081566E-05  0.13277575E-05  0.13363475E-05  0.13339999E-05
  0.13208752E-05  0.12972191E-05  0.12633588E-05  0.12196998E-05  0.11667216E-05
  0.11049725E-05  0.10350647E-05  0.95766835E-06  0.87350539E-06  0.78334317E-06
  0.68798761E-06  0.58827621E-06  0.48507095E-06  0.37925097E-06  0.27170530E-06
  0.16332556E-06  0.54998754E-07 -0.52399847E-07 -0.15801358E-06 -0.26101106E-06
 -0.36059259E-06 -0.45599615E-06 -0.54650312E-06 -0.63144345E-06 -0.71020053E-06
 -0.78221542E-06 -0.84699063E-06 -0.90409340E-06 -0.95315833E-06 -0.99388948E-06
 -0.10260619E-05 -0.10495226E-05 -0.10641907E-05 -0.10700574E-05 -0.10671851E-05
 -0.10557058E-05 -0.10358195E-05 -0.10077914E-05 -0.97194935E-06 -0.92867994E-06
 -0.87842507E-06 -0.82167753E-06 -0.75897639E-06 -0.69090212E-06 -0.61807137E-06
 -0.54113160E-06 -0.46075542E-06 -0.37763492E-06 -0.29247581E-06 -0.20599159E-06
 -0.11889768E-06 -0.31905659E-07  0.54282431E-07  0.13897964E-06  0.22151944E-06
  0.30126086E-06  0.37759335E-06  0.44994129E-06  0.51776824E-06  0.58058078E-06
  0.63793195E-06  0.68942431E-06  0.73471249E-06  0.77350542E-06  0.80556795E-06
  0.83072209E-06  0.84884779E-06  0.85988315E-06  0.86382423E-06  0.86072444E-06
  0.85069333E-06  0.83389511E-06  0.81054662E-06  0.78091498E-06  0.74531481E-06
  0.70410516E-06  0.65768605E-06  0.60649478E-06  0.55100195E-06  0.49170727E-06
  0.42913519E-06  0.36383038E-06  0.29635310E-06  0.22727451E-06  0.15717192E-06
  0.86624046E-07  0.16206398E-07 -0.53513388E-07 -0.12198000E-06 -0.18865478E-06
 atomic pseudo charge-density
  0.70000000E+01  0.69879430E+01  0.69519117E+01  0.68923219E+01  0.68098552E+01
  0.67054425E+01  0.65802418E+01  0.64356114E+01  0.62730794E+01  0.60943109E+01
  0.59010743E+01  0.56952071E+01  0.54785826E+01  0.52530793E+01  0.50205516E+01
  0.47828053E+01  0.45415748E+01  0.42985056E+01  0.40551392E+01  0.38129029E+01
  0.35731013E+01  0.33369128E+01  0.31053873E+01  0.28794470E+01  0.26598893E+01
  0.24473908E+01  0.22425134E+01  0.20457104E+01  0.18573339E+01  0.16776427E+01
  0.15068101E+01  0.13449316E+01  0.11920334E+01  0.10480794E+01  0.91297867E+00
  0.78659285E+00  0.66874217E+00  0.55921186E+00  0.45775772E+00  0.36411134E+00
  0.27798490E+00  0.19907542E+00  0.12706870E+00  0.61642815E-01  0.24711933E-02
 -0.50774593E-01 -0.98422422E-01 -0.14079750E+00 -0.17822056E+00 -0.21100623E+00
 -0.23946178E+00 -0.26388599E+00 -0.28456820E+00 -0.30178763E+00 -0.31581279E+00
 -0.32690105E+00 -0.33529835E+00 -0.34123901E+00 -0.34494565E+00 -0.34662920E+00
 -0.34648897E+00 -0.34471283E+00 -0.34147735E+00 -0.33694811E+00 -0.33127999E+00
 -0.32461744E+00 -0.31709489E+00 -0.30883708E+00 -0.29995946E+00 -0.29056859E+00
 -0.28076253E+00 -0.27063124E+00 -0.26025701E+00 -0.24971481E+00 -0.23907276E+00
 -0.22839244E+00 -0.21772933E+00 -0.20713315E+00 -0.19664822E+00 -0.18631382E+00
 -0.17616452E+00 -0.16623050E+00 -0.15653785E+00 -0.14710889E+00 -0.13796242E+00
 -0.12911401E+00 -0.12057628E+00 -0.11235907E+00 -0.10446975E+00 -0.96913372E-01
 -0.89692928E-01 -0.82809508E-01 -0.76262497E-01 -0.70049745E-01 -0.64167723E-01
 -0.58611678E-01 -0.53375773E-01 -0.48453216E-01 -0.43836383E-01 -0.39516937E-01
 -0.35485928E-01 -0.31733893E-01 -0.28250949E-01 -0.25026877E-01 -0.22051196E-01
 -0.19313239E-01 -0.16802216E-01 -0.14507274E-01 -0.12417555E-01 -0.10522239E-01
 -0.88105950E-02 -0.72720206E-02 -0.58960766E-02 -0.46725211E-02 -0.35913380E-02
 -0.26427626E-02 -0.18173038E-02 -0.11057634E-02 -0.49925265E-03  0.10794436E-04
  0.43260942E-03  0.77408066E-03  0.10427465E-02  0.12457905E-02  0.13900385E-02
  0.14819572E-02  0.15276552E-02  0.15328839E-02  0.15030415E-02  0.14431771E-02
  0.13579962E-02  0.12518677E-02  0.11288309E-02  0.99260409E-03  0.84659373E-03
  0.69390411E-03  0.53734771E-03  0.37945601E-03  0.22249078E-03  0.68455693E-04
 -0.80891784E-04 -0.22402826E-03 -0.35965211E-03 -0.48667112E-03 -0.60418998E-03
 -0.71149789E-03 -0.80805613E-03 -0.89348577E-03 -0.96755551E-03 -0.10301697E-02
 -0.10813565E-02 -0.11212565E-02 -0.11501114E-02 -0.11682531E-02 -0.11760931E-02
 -0.11741124E-02 -0.11628516E-02 -0.11429013E-02 -0.11148937E-02 -0.10794932E-02
 -0.10373890E-02 -0.98928739E-03 -0.93590412E-03 -0.87795819E-03 -0.81616547E-03
 -0.75123295E-03 -0.68385357E-03 -0.61470137E-03 -0.54442726E-03 -0.47365517E-03
 -0.40297867E-03 -0.33295805E-03 -0.26411785E-03 -0.19694476E-03 -0.13188602E-03
 -0.69348122E-04 -0.96959374E-05  0.46747792E-04  0.99702642E-04  0.14893036E-03
  0.19423442E-03  0.23545930E-03  0.27248948E-03  0.30524822E-03  0.33369613E-03
  0.35782951E-03  0.37767855E-03  0.39330536E-03  0.40480184E-03  0.41228754E-03
  0.41590730E-03  0.41582891E-03  0.41224070E-03  0.40534911E-03  0.39537618E-03
  0.38255717E-03  0.36713809E-03  0.34937331E-03  0.32952325E-03  0.30785212E-03
  0.28462568E-03  0.26010919E-03  0.23456541E-03  0.20825269E-03  0.18142324E-03
  0.15432145E-03  0.12718242E-03  0.10023058E-03  0.73678455E-04  0.47725576E-04
  0.22557549E-04 -0.16547479E-05 -0.24755815E-04 -0.46606038E-04 -0.67082064E-04
 -0.86077023E-04 -0.10350063E-03 -0.11927917E-03 -0.13335533E-03 -0.14568791E-03
 -0.15625149E-03 -0.16503594E-03 -0.17204581E-03 -0.17729970E-03 -0.18082952E-03
 -0.18267965E-03 -0.18290611E-03 -0.18157562E-03 -0.17876461E-03 -0.17455826E-03
 -0.16904943E-03 -0.16233767E-03 -0.15452810E-03 -0.14573042E-03 -0.13605781E-03
 -0.12562595E-03 -0.11455196E-03 -0.10295346E-03 -0.90947578E-04 -0.78650089E-04
 -0.66174529E-04 -0.53631387E-04 -0.41127355E-04 -0.28764623E-04 -0.16640249E-04
 -0.48455846E-05  0.65342336E-05  0.17420720E-04  0.27742413E-04  0.37435178E-04
  0.46442439E-04  0.54715349E-04  0.62212888E-04  0.68901900E-04  0.74757064E-04
  0.79760808E-04  0.83903165E-04  0.87181571E-04  0.89600617E-04  0.91171751E-04
  0.91912937E-04  0.91848277E-04  0.91007595E-04  0.89425991E-04  0.87143373E-04
  0.84203963E-04  0.80655789E-04  0.76550163E-04  0.71941150E-04  0.66885039E-04
  0.61439810E-04  0.55664604E-04  0.49619209E-04  0.43363551E-04  0.36957208E-04
  0.30458935E-04  0.23926221E-04  0.17414867E-04  0.10978585E-04  0.46686399E-05
 -0.14664878E-05 -0.73813999E-05 -0.13034047E-04 -0.18385957E-04 -0.23402429E-04
 -0.28052693E-04 -0.32310025E-04 -0.36151836E-04 -0.39559716E-04 -0.42519449E-04
 -0.45020994E-04 -0.47058425E-04 -0.48629852E-04 -0.49737301E-04 -0.50386575E-04
 -0.50587080E-04 -0.50351638E-04 -0.49696269E-04 -0.48639961E-04 -0.47204416E-04
 -0.45413791E-04 -0.43294419E-04 -0.40874527E-04 -0.38183944E-04 -0.35253804E-04
 -0.32116257E-04 -0.28804164E-04 -0.25350812E-04 -0.21789625E-04 -0.18153885E-04
 -0.14476464E-04 -0.10789566E-04 -0.71244817E-05 -0.35113592E-05  0.21007910E-07
  0.34453777E-05  0.67362367E-05  0.98699580E-05  0.12824939E-04  0.15581718E-04
  0.18123072E-04  0.20434089E-04  0.22502226E-04  0.24317339E-04  0.25871694E-04
  0.27159966E-04  0.28179205E-04  0.28928792E-04  0.29410379E-04  0.29627804E-04
  0.29587001E-04  0.29295882E-04  0.28764221E-04  0.28003517E-04  0.27026845E-04
  0.25848709E-04  0.24484875E-04  0.22952205E-04  0.21268490E-04  0.19452269E-04
  0.17522662E-04  0.15499187E-04  0.13401591E-04  0.11249681E-04  0.90631540E-05
  0.68614391E-05  0.46635434E-05  0.24879056E-05  0.35225904E-06 -0.17264958E-05
 -0.37324086E-05 -0.56505854E-05 -0.74672827E-05 -0.91699900E-05 -0.10747500E-04
 -0.12189964E-04 -0.13488940E-04 -0.14637421E-04 -0.15629854E-04 -0.16462148E-04
 -0.17131667E-04 -0.17637213E-04 -0.17978997E-04 -0.18158595E-04 -0.18178904E-04
 -0.18044077E-04 -0.17759459E-04 -0.17331505E-04 -0.16767699E-04 -0.16076466E-04
 -0.15267073E-04 -0.14349529E-04 -0.13334485E-04 -0.12233126E-04 -0.11057062E-04
 -0.98182215E-05 -0.85287450E-05 -0.72008742E-05 -0.58468499E-05 -0.44788086E-05
 -0.31086846E-05 -0.17481150E-05 -0.40835047E-06  0.89982840E-06  0.21661892E-05
  0.33811188E-05  0.45356876E-05  0.56217062E-05  0.66317749E-05  0.75593248E-05
  0.83986515E-05  0.91449402E-05  0.97942833E-05  0.10343689E-04  0.10791084E-04
  0.11135306E-04  0.11376091E-04  0.11514051E-04  0.11550648E-04  0.11488160E-04
  0.11329641E-04  0.11078873E-04  0.10740320E-04  0.10319072E-04  0.98207835E-05
  0.92516169E-05  0.86181736E-05  0.79274298E-05  0.71866685E-05  0.64034100E-05
  0.55853437E-05  0.47402588E-05  0.38759769E-05  0.30002855E-05  0.21208736E-05
  0.12452697E-05  0.38078259E-06 -0.46555423E-06 -0.12870349E-05 -0.20773292E-05
 -0.28305264E-05 -0.35411742E-05 -0.42043133E-05 -0.48155070E-05 -0.53708651E-05
 -0.58670635E-05 -0.63013576E-05 -0.66715918E-05 -0.69762025E-05 -0.72142171E-05
 -0.73852476E-05 -0.74894792E-05 -0.75276555E-05 -0.75010578E-05 -0.74114821E-05
 -0.72612106E-05 -0.70529815E-05 -0.67899546E-05 -0.64756746E-05 -0.61140320E-05
 -0.57092223E-05 -0.52657031E-05 -0.47881505E-05 -0.42814149E-05 -0.37504755E-05
 -0.32003960E-05 -0.26362795E-05 -0.20632255E-05 -0.14862863E-05 -0.91042634E-06
 -0.34048255E-06  0.21887338E-06  0.76317016E-06  0.12881696E-05  0.17898966E-05
  0.22646665E-05  0.27091088E-05  0.31201878E-05  0.34952209E-05  0.38318920E-05
  0.41282623E-05  0.43827782E-05  0.45942746E-05  0.47619759E-05  0.48854931E-05
  0.49648180E-05  0.50003144E-05  0.49927062E-05  0.49430629E-05  0.48527823E-05
  0.47235714E-05  0.45574247E-05  0.43566007E-05  0.41235966E-05  0.38611222E-05
  0.35720719E-05  0.32594960E-05  0.29265719E-05  0.25765740E-05  0.22128445E-05
  0.18387633E-05  0.14577191E-05  0.10730807E-05  0.68816929E-06  0.30623144E-06
 -0.69586027E-07 -0.43626028E-06 -0.79091495E-06 -0.11308408E-05 -0.14535146E-05
 -0.17566158E-05 -0.20380418E-05 -0.22959199E-05 -0.25286179E-05 -0.27347527E-05
 -0.29131953E-05 -0.30630752E-05 -0.31837813E-05 -0.32749612E-05 -0.33365180E-05
 -0.33686058E-05 -0.33716219E-05 -0.33461986E-05 -0.32931920E-05 -0.32136701E-05
 -0.31088987E-05 -0.29803267E-05 -0.28295691E-05 -0.26583905E-05 -0.24686865E-05
 -0.22624648E-05 -0.20418260E-05 -0.18089440E-05 -0.15660461E-05 -0.13153928E-05
 -0.10592589E-05 -0.79991353E-06 -0.53960146E-06 -0.28052510E-06 -0.24826884E-07
  0.22542720E-06  0.46826315E-06  0.70181336E-06  0.92432978E-06  0.11341958E-05
  0.13299368E-05  0.15102292E-05  0.16739081E-05  0.18199736E-05  0.19475950E-05
  0.20561142E-05  0.21450475E-05  0.22140852E-05  0.22630906E-05  0.22920971E-05
  0.23013043E-05  0.22910724E-05  0.22619154E-05  0.22144940E-05  0.21496060E-05
  0.20681774E-05  0.19712511E-05  0.18599760E-05  0.17355948E-05  0.15994321E-05
  0.14528807E-05  0.12973893E-05  0.11344487E-05  0.96557880E-06  0.79231492E-06
  0.61619507E-06  0.43874696E-06  0.26147555E-06  0.85851086E-07 -0.86702352E-07
 -0.25481762E-06 -0.41719457E-06 -0.57260937E-06 -0.71992294E-06 -0.85808847E-06
 -0.98615810E-06 -0.11032885E-05 -0.12087456E-05 -0.13019083E-05 -0.13822707E-05
 -0.14494444E-05 -0.15031585E-05 -0.15432594E-05 -0.15697097E-05 -0.15825858E-05
 -0.15820743E-05 -0.15684689E-05 -0.15421647E-05 -0.15036534E-05 -0.14535164E-05
 -0.13924187E-05 -0.13211012E-05 -0.12403728E-05 -0.11511026E-05 -0.10542111E-05
 -0.95066140E-06 -0.84145070E-06 -0.72760099E-06 -0.61015025E-06 -0.49014350E-06
 -0.36862407E-06 -0.24662502E-06 -0.12516092E-06 -0.52198876E-08  0.11224395E-06
  0.22631753E-06  0.33613543E-06  0.44088597E-06  0.53981663E-06  0.63223897E-06
  0.71753281E-06  0.79514988E-06  0.86461665E-06  0.92553663E-06  0.97759186E-06
  0.10205439E-05  0.10542338E-05  0.10785819E-05  0.10935867E-05  0.10993231E-05
  0.10959399E-05  0.10836574E-05  0.10627637E-05  0.10336111E-05  0.99661163E-06
  0.95223233E-06  0.90099051E-06  0.84344825E-06  0.78020687E-06  0.71190121E-06
  0.63919372E-06  0.56276848E-06  0.48332515E-06  0.40157298E-06  0.31822482E-06
  0.23399127E-06  0.14957496E-06  0.65665051E-07 -0.17068097E-07 -0.97977897E-07
 -0.17644628E-06 -0.25188806E-06 -0.32375496E-06 -0.39153923E-06 -0.45477689E-06
 -0.51305049E-06 -0.56599151E-06 -0.61328223E-06 -0.65465723E-06 -0.68990439E-06
 -0.71886540E-06 -0.74143594E-06 -0.75756531E-06 -0.76725569E-06 -0.77056098E-06
 -0.76758528E-06 -0.75848094E-06 -0.74344631E-06 -0.72272318E-06 -0.69659389E-06
 -0.66537821E-06 -0.62942999E-06 -0.58913358E-06 -0.54490014E-06 -0.49716373E-06
 -0.44637742E-06 -0.39300924E-06 -0.33753812E-06 -0.28044988E-06 -0.22223317E-06
 -0.16337557E-06 -0.10435972E-06 -0.45659553E-07  0.12263208E-07  0.68962517E-07
  0.12401119E-06  0.17700387E-06  0.22755982E-06  0.27532539E-06  0.31997624E-06
  0.36121929E-06  0.39879439E-06  0.43247568E-06  0.46207265E-06  0.48743090E-06
  0.50843263E-06  0.52499674E-06  0.53707880E-06  0.54467054E-06  0.54779925E-06
  0.54652678E-06  0.54094836E-06  0.53119115E-06  0.51741263E-06  0.49979869E-06
  0.47856164E-06  0.45393799E-06  0.42618611E-06  0.39558377E-06  0.36242560E-06
  0.32702044E-06  0.28968864E-06  0.25075934E-06  0.21056776E-06  0.16945244E-06
  0.12775258E-06  0.85805364E-07  0.43943426E-07  0.24923342E-08 -0.38231771E-07
 -0.77924435E-07 -0.11629501E-06 -0.15306863E-06 -0.18798800E-06 -0.22081507E-06
 -0.25133246E-06 -0.27934474E-06 -0.30467950E-06 -0.32718825E-06 -0.34674706E-06
 -0.36325707E-06 -0.37664477E-06 -0.38686203E-06 -0.39388605E-06 -0.39771901E-06
 -0.39838758E-06 -0.39594229E-06 -0.39045665E-06 -0.38202621E-06 -0.37076735E-06
 -0.35681610E-06 -0.34032666E-06 -0.32146993E-06 -0.30043191E-06 -0.27741200E-06
 -0.25262123E-06 -0.22628050E-06 -0.19861867E-06 -0.16987071E-06 -0.14027584E-06
 -0.11007559E-06 -0.79511983E-07 -0.48825681E-07 -0.18254194E-07  0.11969855E-07
  0.41620393E-07  0.70479489E-07  0.98338851E-07  0.12500123E-06  0.15028171E-06
  0.17400889E-06  0.19602595E-06  0.21619155E-06  0.23438068E-06  0.25048530E-06
  0.26441485E-06  0.27609669E-06  0.28547630E-06  0.29251742E-06  0.29720205E-06
  0.29953023E-06  0.29951980E-06  0.29720600E-06  0.29264087E-06  0.28589267E-06
  0.27704505E-06  0.26619628E-06  0.25345819E-06  0.23895521E-06  0.22282322E-06
  0.20520838E-06  0.18626587E-06  0.16615864E-06  0.14505604E-06  0.12313249E-06
  0.10056611E-06  0.77537369E-07  0.54227650E-07  0.30817946E-07  0.74874967E-08
 -0.15587513E-07 -0.38235218E-07 -0.60289288E-07 -0.81590091E-07 -0.10198578E-06
 -0.12133333E-06 -0.13949945E-06 -0.15636149E-06 -0.17180818E-06 -0.18574030E-06
 -0.19807129E-06 -0.20872773E-06 -0.21764968E-06 -0.22479099E-06 -0.23011948E-06
 -0.23361697E-06 -0.23527928E-06 -0.23511605E-06 -0.23315056E-06 -0.22941935E-06
 -0.22397180E-06 -0.21686964E-06 -0.20818629E-06 -0.19800625E-06 -0.18642430E-06
 -0.17354471E-06 -0.15948032E-06 -0.14435163E-06 -0.12828583E-06 -0.11141576E-06
 -0.93878852E-07 -0.75816097E-07 -0.57370915E-07 -0.38688080E-07 -0.19912623E-07
 -0.11887459E-08  0.17341246E-07  0.35537988E-07  0.53266068E-07  0.70394998E-07
  0.86800144E-07  0.10236360E-06  0.11697501E-06  0.13053232E-06  0.14294246E-06
  0.15412197E-06  0.16399750E-06  0.17250634E-06  0.17959673E-06  0.18522815E-06
  0.18937158E-06  0.19200956E-06  0.19313625E-06  0.19275735E-06  0.19088999E-06
  0.18756248E-06  0.18281398E-06  0.17669418E-06  0.16926276E-06  0.16058891E-06
  0.15075071E-06  0.13983445E-06  0.12793394E-06  0.11514972E-06  0.10158825E-06
  0.87361058E-07  0.72583835E-07  0.57375546E-07  0.41857486E-07  0.26152342E-07
  0.10383248E-07 -0.53271596E-08 -0.20857671E-07 -0.36089422E-07 -0.50906783E-07
 -0.65198222E-07 -0.78857128E-07 -0.91782591E-07 -0.10388014E-06 -0.11506241E-06
 -0.12524980E-06 -0.13437096E-06 -0.14236336E-06 -0.14917366E-06 -0.15475810E-06
 -0.15908270E-06 -0.16212356E-06 -0.16386688E-06 -0.16430906E-06 -0.16345664E-06
 -0.16132617E-06 -0.15794406E-06 -0.15334626E-06 -0.14757795E-06 -0.14069312E-06
 -0.13275410E-06 -0.12383102E-06 -0.11400123E-06 -0.10334862E-06 -0.91962957E-07
 -0.79939126E-07 -0.67376379E-07 -0.54377521E-07 -0.41048091E-07 -0.27495513E-07
 -0.13828254E-07 -0.15495909E-09  0.13416393E-07  0.26779335E-07  0.39829741E-07
  0.52466623E-07  0.64592911E-07  0.76116191E-07  0.86949405E-07  0.97011505E-07
  0.10622805E-06  0.11453178E-06  0.12186306E-06  0.12817034E-06  0.13341053E-06
  0.13754923E-06  0.14056102E-06  0.14242958E-06  0.14314776E-06  0.14271759E-06
  0.14115023E-06  0.13846581E-06  0.13469321E-06  0.12986980E-06  0.12404111E-06
  0.11726039E-06  0.10958814E-06  0.10109162E-06  0.91844256E-07  0.81925016E-07
  0.71417760E-07  0.60410537E-07  0.48994859E-07  0.37264952E-07  0.25316983E-07
  0.13248284E-07  0.11565659E-08 -0.10860870E-07 -0.22707907E-07 -0.34290379E-07
 -0.45516812E-07 -0.56299149E-07 -0.66553435E-07 -0.76200469E-07 -0.85166417E-07
 -0.93383375E-07 -0.10078988E-06 -0.10733138E-06 -0.11296063E-06 -0.11763801E-06
 -0.12133184E-06 -0.12401857E-06 -0.12568294E-06 -0.12631803E-06 -0.12592530E-06
 -0.12451451E-06 -0.12210360E-06 -0.11871852E-06 -0.11439294E-06 -0.10916795E-06
 -0.10309171E-06 -0.96218976E-07 -0.88610642E-07 -0.80333218E-07 -0.71458242E-07
 -0.62061684E-07 -0.52223294E-07 -0.42025936E-07 -0.31554898E-07 -0.20897182E-07
 -0.10140785E-07  0.62602251E-09  0.11315416E-07  0.21840734E-07  0.32117174E-07
  0.42062477E-07  0.51597586E-07  0.60647269E-07  0.69140715E-07  0.77012088E-07
  0.84201034E-07  0.90653146E-07  0.96320376E-07  0.10116139E-06  0.10514186E-06
  0.10823473E-06  0.11042036E-06  0.11168669E-06  0.11202923E-06  0.11145113E-06
  0.10996304E-06  0.10758304E-06  0.10433639E-06  0.10025534E-06  0.95378769E-07
  0.89751860E-07  0.83425685E-07  0.76456749E-07  0.68906491E-07  0.60840751E-07
  0.52329204E-07  0.43444760E-07  0.34262945E-07  0.24861268E-07  0.15318562E-07
  0.57143319E-08 -0.38719059E-08 -0.13361282E-07 -0.22676218E-07 -0.31741063E-07
 -0.40482703E-07 -0.48831151E-07 -0.56720109E-07 -0.64087489E-07 -0.70875903E-07
 -0.77033112E-07 -0.82512422E-07 -0.87273038E-07 -0.91280369E-07 -0.94506273E-07
 -0.96929249E-07 -0.98534582E-07 -0.99314414E-07 -0.99267772E-07 -0.98400534E-07
 -0.96725336E-07 -0.94261425E-07 -0.91034462E-07 -0.87076263E-07 -0.82424504E-07
   17.9523968914998      T
 Non local Part
           0           2   1.13171527465902     
   5.54620355039097        5.87784242572462        5.87784242572462     
   6.22743050209229     
 Reciprocal Space Part
 -0.17508174E+03 -0.17391495E+03 -0.17043238E+03 -0.16468704E+03 -0.15676623E+03
 -0.14678995E+03 -0.13490877E+03 -0.12130105E+03 -0.10616985E+03 -0.89739224E+02
 -0.72250339E+02 -0.53957193E+02 -0.35122222E+02 -0.16011782E+02  0.31083743E+01
  0.21977541E+02  0.40344339E+02  0.57970759E+02  0.74635874E+02  0.90139181E+02
  0.10430349E+03  0.11697733E+03  0.12803680E+03  0.13738696E+03  0.14496249E+03
  0.15072795E+03  0.15467741E+03  0.15683351E+03  0.15724611E+03  0.15599037E+03
  0.15316451E+03  0.14888721E+03  0.14329463E+03  0.13653731E+03  0.12877693E+03
  0.12018284E+03  0.11092878E+03  0.10118953E+03  0.91137717E+02  0.80940810E+02
  0.70758366E+02  0.60739545E+02  0.51020948E+02  0.41724827E+02  0.32957651E+02
  0.24809079E+02  0.17351310E+02  0.10638828E+02  0.47085226E+01 -0.41984828E+00
 -0.47428632E+01 -0.82723566E+01 -0.11034086E+02 -0.13066194E+02 -0.14417501E+02
 -0.15145693E+02 -0.15315429E+02 -0.14996432E+02 -0.14261605E+02 -0.13185197E+02
 -0.11841086E+02 -0.10301184E+02 -0.86340081E+01 -0.69034359E+01 -0.51676626E+01
 -0.34783706E+01 -0.18801173E+01 -0.40994089E+00  0.90282216E+00  0.20365175E+01
  0.29769665E+01  0.37170917E+01  0.42563955E+01  0.46003161E+01  0.47594861E+01
  0.47489202E+01  0.45871581E+01  0.42953893E+01  0.38965821E+01  0.34146427E+01
  0.28736217E+01  0.22969878E+01  0.17069817E+01  0.11240635E+01  0.56645919E+00
  0.49813701E-01 -0.41305061E+00 -0.81226979E+00 -0.11409739E+01 -0.13952289E+01
 -0.15738948E+01 -0.16784094E+01 -0.17125121E+01 -0.16819190E+01 -0.15939640E+01
 -0.14572188E+01 -0.12811065E+01 -0.10755188E+01 -0.85045118E+00 -0.61566390E+00
 Real Space Part
  0.74065125E+03  0.74016347E+03  0.73870139E+03  0.73626894E+03  0.73287261E+03
  0.72852144E+03  0.72322695E+03  0.71700311E+03  0.70986621E+03  0.70183484E+03
  0.69292973E+03  0.68317365E+03  0.67259135E+03  0.66120936E+03  0.64905593E+03
  0.63616086E+03  0.62255537E+03  0.60827200E+03  0.59334444E+03  0.57780746E+03
  0.56169670E+03  0.54504865E+03  0.52790044E+03  0.51028982E+03  0.49225500E+03
  0.47383459E+03  0.45506749E+03  0.43599284E+03  0.41664995E+03  0.39707823E+03
  0.37731712E+03  0.35740610E+03  0.33738461E+03  0.31729203E+03  0.29716766E+03
  0.27705074E+03  0.25698034E+03  0.23699546E+03  0.21713496E+03  0.19743757E+03
  0.17794186E+03  0.15868628E+03  0.13970911E+03  0.12104845E+03  0.10274223E+03
  0.84828128E+02  0.67343565E+02  0.50325653E+02  0.33811123E+02  0.17836253E+02
  0.24367706E+01 -0.12352257E+02 -0.26496556E+02 -0.39962795E+02 -0.52718761E+02
 -0.64733553E+02 -0.75977804E+02 -0.86423917E+02 -0.96046333E+02 -0.10482181E+03
 -0.11272974E+03 -0.11975245E+03 -0.12587553E+03 -0.13108822E+03 -0.13538369E+03
 -0.13875944E+03 -0.14121759E+03 -0.14276525E+03 -0.14341474E+03 -0.14318391E+03
 -0.14209633E+03 -0.14018143E+03 -0.13747465E+03 -0.13401741E+03 -0.12985708E+03
 -0.12504684E+03 -0.11964543E+03 -0.11371683E+03 -0.10732983E+03 -0.10055748E+03
 -0.93476471E+02 -0.86166422E+02 -0.78709072E+02 -0.71187435E+02 -0.63684841E+02
 -0.56284005E+02 -0.49066014E+02 -0.42109352E+02 -0.35488916E+02 -0.29275070E+02
 -0.23532765E+02 -0.18320717E+02 -0.13690658E+02 -0.96867374E+01 -0.63449464E+01
 -0.36928329E+01 -0.17491414E+01 -0.52059071E+00 -0.25520107E-01  0.00000000E+00
 Reciprocal Space Part
  0.17400418E+03  0.17286934E+03  0.16948204E+03  0.16389366E+03  0.15618880E+03
  0.14648376E+03  0.13492444E+03  0.12168372E+03  0.10695841E+03  0.90965687E+02
  0.73939349E+02  0.56125652E+02  0.37779071E+02  0.19157923E+02  0.51999064E+00
 -0.17881781E+02 -0.35803429E+02 -0.53013885E+02 -0.69298576E+02 -0.84462658E+02
 -0.98333822E+02 -0.11076462E+03 -0.12163428E+03 -0.13085003E+03 -0.13834776E+03
 -0.14409232E+03 -0.14807708E+03 -0.15032312E+03 -0.15087785E+03 -0.14981326E+03
 -0.14722367E+03 -0.14322324E+03 -0.13794315E+03 -0.13152856E+03 -0.12413542E+03
 -0.11592728E+03 -0.10707196E+03 -0.97738377E+02 -0.88093469E+02 -0.78299263E+02
 -0.68510214E+02 -0.58870799E+02 -0.49513424E+02 -0.40556682E+02 -0.32103964E+02
 -0.24242455E+02 -0.17042500E+02 -0.10557349E+02 -0.48232625E+01  0.14004775E+00
  0.43286585E+01  0.77533991E+01  0.10438571E+02  0.12420468E+02  0.13745734E+02
  0.14469612E+02  0.14654126E+02  0.14366240E+02  0.13676031E+02  0.12654932E+02
  0.11374062E+02  0.99026938E+01  0.83068648E+01  0.66481788E+01  0.49827932E+01
  0.33606145E+01  0.18247030E+01  0.41088803E+00 -0.85241221E+00 -0.19441765E+01
 -0.28505857E+01 -0.35646654E+01 -0.40857869E+01 -0.44190491E+01 -0.45745665E+01
 -0.45666884E+01 -0.44131743E+01 -0.41343507E+01 -0.37522735E+01 -0.32899166E+01
 -0.27704077E+01 -0.22163274E+01 -0.16490859E+01 -0.10883893E+01 -0.55180155E+00
 -0.54408356E-01  0.39141674E+00  0.77614483E+00  0.10931275E+01  0.13385421E+01
  0.15112567E+01  0.16126229E+01  0.16462103E+01  0.16174954E+01  0.15335154E+01
  0.14025039E+01  0.12335179E+01  0.10360703E+01  0.81977781E+00  0.59403453E+00
 Real Space Part
 -0.71245018E+03 -0.71197620E+03 -0.71055551E+03 -0.70819200E+03 -0.70489207E+03
 -0.70066462E+03 -0.69552105E+03 -0.68947511E+03 -0.68254290E+03 -0.67474272E+03
 -0.66609503E+03 -0.65662228E+03 -0.64634883E+03 -0.63530084E+03 -0.62350610E+03
 -0.61099395E+03 -0.59779511E+03 -0.58394156E+03 -0.56946643E+03 -0.55440385E+03
 -0.53878881E+03 -0.52265710E+03 -0.50604513E+03 -0.48898987E+03 -0.47152872E+03
 -0.45369944E+03 -0.43554004E+03 -0.41708875E+03 -0.39838389E+03 -0.37946387E+03
 -0.36036711E+03 -0.34113198E+03 -0.32179680E+03 -0.30239980E+03 -0.28297908E+03
 -0.26357262E+03 -0.24421824E+03 -0.22495361E+03 -0.20581623E+03 -0.18684344E+03
 -0.16807241E+03 -0.14954010E+03 -0.13128332E+03 -0.11333863E+03 -0.95742408E+02
 -0.78530752E+02 -0.61739481E+02 -0.45404081E+02 -0.29559641E+02 -0.14240786E+02
  0.51841511E+00  0.14684555E+02  0.28225012E+02  0.41108092E+02  0.53303199E+02
  0.64781014E+02  0.75513707E+02  0.85475169E+02  0.94641256E+02  0.10299007E+03
  0.11050223E+03  0.11716122E+03  0.12295363E+03  0.12786957E+03  0.13190293E+03
  0.13505175E+03  0.13731853E+03  0.13871050E+03  0.13923996E+03  0.13892445E+03
  0.13778702E+03  0.13585634E+03  0.13316681E+03  0.12975857E+03  0.12567745E+03
  0.12097485E+03  0.11570746E+03  0.10993700E+03  0.10372976E+03  0.97156087E+02
  0.90289821E+02  0.83207566E+02  0.75987930E+02  0.68710711E+02  0.61455982E+02
  0.54303190E+02  0.47330191E+02  0.40612306E+02  0.34221387E+02  0.28224903E+02
  0.22685100E+02  0.17658213E+02  0.13193751E+02  0.93339181E+01  0.61130734E+01
  0.35574515E+01  0.16848227E+01  0.50139276E+00  0.24576569E-01  0.00000000E+00
 Non local Part
           1           2   1.13171527465902     
   2.18509687567675        2.77620619847950        2.77620619847950     
   3.54115216958342     
 Reciprocal Space Part
  0.00000000E+00  0.41951004E+01  0.82972570E+01  0.12215403E+02  0.15862184E+02
  0.19155715E+02  0.22021222E+02  0.24392526E+02  0.26213353E+02  0.27438421E+02
  0.28034309E+02  0.27980062E+02  0.27267546E+02  0.25901528E+02  0.23899491E+02
  0.21291192E+02  0.18117969E+02  0.14431814E+02  0.10294243E+02  0.57749755E+01
  0.95047163E+00 -0.40976571E+01 -0.92843167E+01 -0.14522646E+02 -0.19725743E+02
 -0.24808357E+02 -0.29688524E+02 -0.34289104E+02 -0.38539180E+02 -0.42375312E+02
 -0.45742607E+02 -0.48595590E+02 -0.50898860E+02 -0.52627529E+02 -0.53767430E+02
 -0.54315102E+02 -0.54277555E+02 -0.53671831E+02 -0.52524364E+02 -0.50870176E+02
 -0.48751916E+02 -0.46218775E+02 -0.43325301E+02 -0.40130149E+02 -0.36694786E+02
 -0.33082192E+02 -0.29355569E+02 -0.25577109E+02 -0.21806823E+02 -0.18101468E+02
 -0.14513588E+02 -0.11090685E+02 -0.78745371E+01 -0.49006633E+01 -0.21979517E+01
  0.21155527E+00  0.23127171E+01  0.40972010E+01  0.55632454E+01  0.67152932E+01
  0.75635102E+01  0.81232049E+01  0.84141679E+01  0.84599508E+01  0.82871041E+01
  0.79243938E+01  0.74020172E+01  0.67508348E+01  0.60016375E+01  0.51844621E+01
  0.43279713E+01  0.34589068E+01  0.26016262E+01  0.17777287E+01  0.10057737E+01
  0.30109317E+00 -0.32430314E+00 -0.86173370E+00 -0.13057680E+01 -0.16540733E+01
 -0.19071951E+01 -0.20682804E+01 -0.21427555E+01 -0.21379702E+01 -0.20628193E+01
 -0.19273534E+01 -0.17423902E+01 -0.15191370E+01 -0.12688331E+01 -0.10024208E+01
 -0.73025261E+00 -0.46183842E+00 -0.20563898E+00  0.31093746E-01  0.24242747E+00
  0.42381233E+00  0.57209736E+00  0.68550367E+00  0.76355836E+00  0.80699416E+00
 Real Space Part
  0.00000000E+00 -0.78674991E+01 -0.15720231E+02 -0.23543342E+02 -0.31321811E+02
 -0.39040370E+02 -0.46683430E+02 -0.54235023E+02 -0.61678750E+02 -0.68997740E+02
 -0.76174627E+02 -0.83191541E+02 -0.90030115E+02 -0.96671509E+02 -0.10309645E+03
 -0.10928529E+03 -0.11521807E+03 -0.12087464E+03 -0.12623473E+03 -0.13127807E+03
 -0.13598454E+03 -0.14033431E+03 -0.14430798E+03 -0.14788673E+03 -0.15105251E+03
 -0.15378819E+03 -0.15607773E+03 -0.15790636E+03 -0.15926074E+03 -0.16012914E+03
 -0.16050159E+03 -0.16037002E+03 -0.15972845E+03 -0.15857308E+03 -0.15690245E+03
 -0.15471756E+03 -0.15202193E+03 -0.14882173E+03 -0.14512584E+03 -0.14094592E+03
 -0.13629641E+03 -0.13119463E+03 -0.12566068E+03 -0.11971755E+03 -0.11339096E+03
 -0.10670941E+03 -0.99704033E+02 -0.92408527E+02 -0.84859024E+02 -0.77093944E+02
 -0.69153817E+02 -0.61081093E+02 -0.52919905E+02 -0.44715830E+02 -0.36515598E+02
 -0.28366792E+02 -0.20317515E+02 -0.12416025E+02 -0.47103525E+01  0.27521082E+01
  0.99250301E+01  0.16763603E+02  0.23224999E+02  0.29268845E+02  0.34857703E+02
  0.39957552E+02  0.44538258E+02  0.48574030E+02  0.52043850E+02  0.54931872E+02
  0.57227781E+02  0.58927089E+02  0.60031382E+02  0.60548477E+02  0.60492513E+02
  0.59883956E+02  0.58749485E+02  0.57121796E+02  0.55039311E+02  0.52545751E+02
  0.49689639E+02  0.46523697E+02  0.43104129E+02  0.39489877E+02  0.35741741E+02
  0.31921522E+02  0.28091062E+02  0.24311318E+02  0.20641410E+02  0.17137698E+02
  0.13852904E+02  0.10835295E+02  0.81279140E+01  0.57679528E+01  0.37861628E+01
  0.22064620E+01  0.10455823E+01  0.31138700E+00  0.13079284E-01  0.00000000E+00
 Reciprocal Space Part
  0.00000000E+00 -0.29570920E+01 -0.58452685E+01 -0.85970236E+01 -0.11147641E+02
 -0.13436512E+02 -0.15408368E+02 -0.17014396E+02 -0.18213214E+02 -0.18971691E+02
 -0.19265593E+02 -0.19080030E+02 -0.18409718E+02 -0.17259029E+02 -0.15641852E+02
 -0.13581241E+02 -0.11108893E+02 -0.82644390E+01 -0.50945833E+01 -0.16521072E+01
  0.20052439E+01  0.58159611E+01  0.97160335E+01  0.13640243E+02  0.17523466E+02
  0.21301950E+02  0.24914541E+02  0.28303837E+02  0.31417242E+02  0.34207896E+02
  0.36635480E+02  0.38666853E+02  0.40276544E+02  0.41447057E+02  0.42169026E+02
  0.42441177E+02  0.42270141E+02  0.41670106E+02  0.40662315E+02  0.39274446E+02
  0.37539869E+02  0.35496818E+02  0.33187478E+02  0.30657036E+02  0.27952688E+02
  0.25122652E+02  0.22215195E+02  0.19277685E+02  0.16355718E+02  0.13492299E+02
  0.10727129E+02  0.80959759E+01  0.56301686E+01  0.33562018E+01  0.12954635E+01
 -0.53591563E+00 -0.21270931E+01 -0.34724309E+01 -0.45713027E+01 -0.54278041E+01
 -0.60503747E+01 -0.64513463E+01 -0.66464311E+01 -0.66541647E+01 -0.64953186E+01
 -0.61922990E+01 -0.57685443E+01 -0.52479384E+01 -0.46542496E+01 -0.40106104E+01
 -0.33390444E+01 -0.26600532E+01 -0.19922652E+01 -0.13521550E+01 -0.75383301E+00
 -0.20890812E+00  0.27357945E+00  0.68715670E+00  0.10278530E+01  0.12940773E+01
  0.14864450E+01  0.16075609E+01  0.16617693E+01  0.16548767E+01  0.15938596E+01
  0.14865641E+01  0.13414059E+01  0.11670805E+01  0.97228800E+00  0.76548190E+00
  0.55464433E+00  0.34709395E+00  0.14932855E+00 -0.33095577E-01 -0.19564678E+00
 -0.33486420E+00 -0.44836832E+00 -0.53483827E+00 -0.59395913E+00 -0.62634301E+00
 Real Space Part
  0.00000000E+00  0.59739038E+01  0.11937812E+02  0.17881649E+02  0.23795176E+02
  0.29667921E+02  0.35489105E+02  0.41247584E+02  0.46931792E+02  0.52529709E+02
  0.58028822E+02  0.63416116E+02  0.68678070E+02  0.73800669E+02  0.78769435E+02
  0.83569460E+02  0.88185473E+02  0.92601900E+02  0.96802952E+02  0.10077272E+03
  0.10449527E+03  0.10795478E+03  0.11113564E+03  0.11402259E+03  0.11660086E+03
  0.11885632E+03  0.12077558E+03  0.12234618E+03  0.12355670E+03  0.12439693E+03
  0.12485796E+03  0.12493235E+03  0.12461425E+03  0.12389948E+03  0.12278571E+03
  0.12127247E+03  0.11936132E+03  0.11705587E+03  0.11436188E+03  0.11128729E+03
  0.10784229E+03  0.10403931E+03  0.99893049E+02  0.95420457E+02  0.90640732E+02
  0.85575267E+02  0.80247597E+02  0.74683324E+02  0.68910025E+02  0.62957139E+02
  0.56855833E+02  0.50638848E+02  0.44340326E+02  0.37995613E+02  0.31641041E+02
  0.25313690E+02  0.19051125E+02  0.12891117E+02  0.68713368E+01  0.10290369E+01
 -0.45992867E+01 -0.99782487E+01 -0.15073940E+02 -0.19854300E+02 -0.24289497E+02
 -0.28352306E+02 -0.32018483E+02 -0.35267121E+02 -0.38080999E+02 -0.40446893E+02
 -0.42355864E+02 -0.43803501E+02 -0.44790112E+02 -0.45320863E+02 -0.45405853E+02
 -0.45060124E+02 -0.44303584E+02 -0.43160860E+02 -0.41661084E+02 -0.39837557E+02
 -0.37727381E+02 -0.35370988E+02 -0.32811590E+02 -0.30094602E+02 -0.27266966E+02
 -0.24376481E+02 -0.21471058E+02 -0.18598004E+02 -0.15803274E+02 -0.13130760E+02
 -0.10621594E+02 -0.83135181E+01 -0.62402771E+01 -0.44311263E+01 -0.29103671E+01
 -0.16970346E+01 -0.80461696E+00 -0.23975087E+00 -0.10071765E-01  0.00000000E+00
 Non local Part
           2           1   1.13171527465902     
   2.52698029038371     
 Reciprocal Space Part
  0.00000000E+00  0.16650390E-01  0.66290759E-01  0.14798664E+00  0.26020430E+00
  0.40083819E+00  0.56725283E+00  0.75633443E+00  0.96455172E+00  0.11880247E+01
  0.14225997E+01  0.16639296E+01  0.19075569E+01  0.21489985E+01  0.23838300E+01
  0.26077683E+01  0.28167503E+01  0.30070062E+01  0.31751264E+01  0.33181205E+01
  0.34334671E+01  0.35191532E+01  0.35737041E+01  0.35962013E+01  0.35862894E+01
  0.35441725E+01  0.34705985E+01  0.33668347E+01  0.32346323E+01  0.30761835E+01
  0.28940699E+01  0.26912056E+01  0.24707748E+01  0.22361659E+01  0.19909034E+01
  0.17385794E+01  0.14827858E+01  0.12270486E+01  0.97476555E+00  0.72914892E+00
  0.49317344E+00  0.26953114E+00  0.60593396E-01 -0.13161914E+00 -0.30545849E+00
 -0.45966290E+00 -0.59336219E+00 -0.70607489E+00 -0.79769784E+00 -0.86848855E+00
 -0.91904114E+00 -0.95025663E+00 -0.96330848E+00 -0.95960428E+00 -0.94074473E+00
 -0.90848079E+00 -0.86467011E+00 -0.81123375E+00 -0.75011403E+00 -0.68323449E+00
 -0.61246262E+00 -0.53957618E+00 -0.46623354E+00 -0.39394853E+00 -0.32407011E+00
 -0.25776706E+00 -0.19601766E+00 -0.13960434E+00 -0.89113202E-01 -0.44937902E-01
 -0.72877475E-02  0.23800610E-01  0.48448340E-01  0.66917038E-01  0.79589375E-01
  0.86948382E-01  0.89555991E-01  0.88031412E-01  0.83029890E-01  0.75222362E-01
  0.65276451E-01  0.53839195E-01  0.41521819E-01  0.28886788E-01  0.16437314E-01
  0.46093990E-02 -0.62335744E-02 -0.15803755E-01 -0.23889360E-01 -0.30353015E-01
 -0.35128116E-01 -0.38213478E-01 -0.39666565E-01 -0.39595606E-01 -0.38150919E-01
 -0.35515760E-01 -0.31897003E-01 -0.27515954E-01 -0.22599538E-01 -0.17372125E-01
 Real Space Part
  0.00000000E+00 -0.74649033E-02 -0.29746595E-01 -0.66507596E-01 -0.11719066E+00
 -0.18102654E+00 -0.25704458E+00 -0.34408617E+00 -0.44082056E+00 -0.54576304E+00
 -0.65729491E+00 -0.77368523E+00 -0.89311373E+00 -0.10136946E+01 -0.11335011E+01
 -0.12505897E+01 -0.13630252E+01 -0.14689040E+01 -0.15663776E+01 -0.16536747E+01
 -0.17291216E+01 -0.17911615E+01 -0.18383720E+01 -0.18694801E+01 -0.18833758E+01
 -0.18791230E+01 -0.18559692E+01 -0.18133512E+01 -0.17509008E+01 -0.16684461E+01
 -0.15660128E+01 -0.14438215E+01 -0.13022848E+01 -0.11420014E+01 -0.96374929E+00
 -0.76847660E+00 -0.55729203E+00 -0.33145338E+00 -0.92355202E-01  0.15848442E+00
  0.41943796E+00  0.68878310E+00  0.96471789E+00  0.12453763E+01  0.15288440E+01
  0.18131742E+01  0.20964035E+01  0.23765679E+01  0.26517183E+01  0.29199359E+01
  0.31793473E+01  0.34281390E+01  0.36645720E+01  0.38869949E+01  0.40938574E+01
  0.42837227E+01  0.44552789E+01  0.46073505E+01  0.47389079E+01  0.48490773E+01
  0.49371486E+01  0.50025828E+01  0.50450182E+01  0.50642750E+01  0.50603593E+01
  0.50334650E+01  0.49839748E+01  0.49124590E+01  0.48196728E+01  0.47065524E+01
  0.45742081E+01  0.44239165E+01  0.42571103E+01  0.40753658E+01  0.38803891E+01
  0.36740005E+01  0.34581160E+01  0.32347283E+01  0.30058863E+01  0.27736725E+01
  0.25401807E+01  0.23074922E+01  0.20776521E+01  0.18526461E+01  0.16343768E+01
  0.14246421E+01  0.12251149E+01  0.10373227E+01  0.86263227E+00  0.70223361E+00
  0.55712866E+00  0.42812211E+00  0.31581410E+00  0.22059824E+00  0.14265968E+00
  0.81980184E-01  0.38341865E-01  0.11268509E-01  0.55051944E-03  0.00000000E+00
 PAW radial sets
         363   1.01784137742840     
(5E20.12)                                
 augmentation charges (non sperical)
 -0.464905897438E+00 -0.481319726453E+00 -0.207343540534E+00 -0.272768385282E+00 -0.945544737097E-01
 -0.481319726453E+00 -0.498338918011E+00 -0.215193507016E+00 -0.283036524495E+00 -0.984611643358E-01
 -0.207343540534E+00 -0.215193507016E+00 -0.926162455338E-01 -0.120465110027E+00 -0.442209531154E-01
 -0.272768385282E+00 -0.283036524495E+00 -0.120465110027E+00 -0.156795811976E+00 -0.568867768312E-01
 -0.945544737097E-01 -0.984611643358E-01 -0.442209531154E-01 -0.568867768312E-01 -0.654878894678E-02
 uccopancies in atom
  0.200000000328E+01  0.000000000000E+00  0.000000000000E+00  0.000000000000E+00  0.000000000000E+00
  0.000000000000E+00  0.000000000000E+00  0.000000000000E+00  0.000000000000E+00  0.000000000000E+00
  0.000000000000E+00  0.000000000000E+00  0.166666667011E+01  0.000000000000E+00  0.000000000000E+00
  0.000000000000E+00  0.000000000000E+00  0.000000000000E+00  0.000000000000E+00  0.000000000000E+00
  0.000000000000E+00  0.000000000000E+00  0.000000000000E+00  0.000000000000E+00  0.000000000000E+00
 grid
  0.500586163656E-04  0.516863976889E-04  0.533671103999E-04  0.551024756954E-04  0.568942707412E-04
  0.587443304919E-04  0.606545495703E-04  0.626268842077E-04  0.646633542472E-04  0.667660452120E-04
  0.689371104413E-04  0.711787732958E-04  0.734933294341E-04  0.758831491639E-04  0.783506798694E-04
  0.808984485177E-04  0.835290642465E-04  0.862452210363E-04  0.890497004689E-04  0.919453745763E-04
  0.949352087819E-04  0.980222649371E-04  0.101209704457E-03  0.104500791559E-03  0.107898896603E-03
  0.111407499545E-03  0.115030193503E-03  0.118770688430E-03  0.122632814921E-03  0.126620528131E-03
  0.130737911827E-03  0.134989182568E-03  0.139378694028E-03  0.143910941451E-03  0.148590566253E-03
  0.153422360779E-03  0.158411273210E-03  0.163562412627E-03  0.168881054247E-03  0.174372644824E-03
  0.180042808228E-03  0.185897351199E-03  0.191942269303E-03  0.198183753063E-03  0.204628194305E-03
  0.211282192699E-03  0.218152562521E-03  0.225246339630E-03  0.232570788674E-03  0.240133410528E-03
  0.247941949979E-03  0.256004403653E-03  0.264329028207E-03  0.272924348784E-03  0.281799167743E-03
  0.290962573676E-03  0.300423950709E-03  0.310192988120E-03  0.320279690256E-03  0.330694386783E-03
  0.341447743260E-03  0.352550772063E-03  0.364014843664E-03  0.375851698274E-03  0.388073457866E-03
  0.400692638591E-03  0.413722163592E-03  0.427175376242E-03  0.441066053805E-03  0.455408421550E-03
  0.470217167313E-03  0.485507456546E-03  0.501294947840E-03  0.517595808966E-03  0.534426733430E-03
  0.551804957569E-03  0.569748278204E-03  0.588275070863E-03  0.607404308601E-03  0.627155581428E-03
  0.647549116374E-03  0.668605798202E-03  0.690347190792E-03  0.712795559230E-03  0.735973892609E-03
  0.759905927567E-03  0.784616172598E-03  0.810129933153E-03  0.836473337552E-03  0.863673363743E-03
  0.891757866931E-03  0.920755608099E-03  0.950696283470E-03  0.981610554912E-03  0.101353008134E-02
  0.104648755114E-02  0.108051671563E-02  0.111565242366E-02  0.115193065727E-02  0.118938856853E-02
  0.122806451762E-02  0.126799811208E-02  0.130923024742E-02  0.135180314893E-02  0.139576041500E-02
  0.144114706170E-02  0.148800956892E-02  0.153639592798E-02  0.158635569072E-02  0.163794002030E-02
  0.169120174360E-02  0.174619540527E-02  0.180297732363E-02  0.186160564831E-02  0.192214041986E-02
  0.198464363116E-02  0.204917929096E-02  0.211581348943E-02  0.218461446580E-02  0.225565267828E-02
  0.232900087621E-02  0.240473417456E-02  0.248293013084E-02  0.256366882454E-02  0.264703293914E-02
  0.273310784678E-02  0.282198169569E-02  0.291374550045E-02  0.300849323522E-02  0.310632192995E-02
  0.320733176979E-02  0.331162619763E-02  0.341931202008E-02  0.353049951683E-02  0.364530255360E-02
  0.376383869873E-02  0.388622934358E-02  0.401259982688E-02  0.414307956304E-02  0.427780217471E-02
  0.441690562962E-02  0.456053238186E-02  0.470882951778E-02  0.486194890661E-02  0.502004735597E-02
  0.518328677250E-02  0.535183432762E-02  0.552586262876E-02  0.570554989611E-02  0.589108014512E-02
  0.608264337500E-02  0.628043576321E-02  0.648465986646E-02  0.669552482807E-02  0.691324659219E-02
  0.713804812492E-02  0.737015964269E-02  0.760981884798E-02  0.785727117274E-02  0.811277002978E-02
  0.837657707226E-02  0.864896246165E-02  0.893020514438E-02  0.922059313754E-02  0.952042382380E-02
  0.983000425600E-02  0.101496514715E-01  0.104796928171E-01  0.108204662839E-01  0.111723208537E-01
  0.115356168563E-01  0.119107263386E-01  0.122980334455E-01  0.126979348133E-01  0.131108399760E-01
  0.135371717845E-01  0.139773668398E-01  0.144318759402E-01  0.149011645426E-01  0.153857132397E-01
  0.158860182516E-01  0.164025919343E-01  0.169359633046E-01  0.174866785812E-01  0.180553017447E-01
  0.186424151150E-01  0.192486199474E-01  0.198745370486E-01  0.205208074126E-01  0.211880928765E-01
  0.218770767990E-01  0.225884647599E-01  0.233229852825E-01  0.240813905802E-01  0.248644573261E-01
  0.256729874491E-01  0.265078089547E-01  0.273697767730E-01  0.282597736344E-01  0.291787109735E-01
  0.301275298624E-01  0.311072019745E-01  0.321187305798E-01  0.331631515718E-01  0.342415345289E-01
  0.353549838096E-01  0.365046396832E-01  0.376916794978E-01  0.389173188858E-01  0.401828130092E-01
  0.414894578444E-01  0.428385915099E-01  0.442315956366E-01  0.456698967824E-01  0.471549678933E-01
  0.486883298119E-01  0.502715528349E-01  0.519062583209E-01  0.535941203512E-01  0.553368674440E-01
  0.571362843247E-01  0.589942137534E-01  0.609125584120E-01  0.628932828534E-01  0.649384155122E-01
  0.670500507831E-01  0.692303511652E-01  0.714815494765E-01  0.738059511408E-01  0.762059365486E-01
  0.786839634946E-01  0.812425696949E-01  0.838843753860E-01  0.866120860076E-01  0.894284949738E-01
  0.923364865336E-01  0.953390387243E-01  0.984392264218E-01  0.101640224489E+00  0.104945311028E+00
  0.108357870736E+00  0.111881398373E+00  0.115519502338E+00  0.119275908368E+00  0.123154463351E+00
  0.127159139267E+00  0.131294037252E+00  0.135563391805E+00  0.139971575117E+00  0.144523101554E+00
  0.149222632275E+00  0.154074980012E+00  0.159085113992E+00  0.164258165030E+00  0.169599430783E+00
  0.175114381173E+00  0.180808663992E+00  0.186688110683E+00  0.192758742312E+00  0.199026775738E+00
  0.205498629974E+00  0.212180932764E+00  0.219080527371E+00  0.226204479582E+00  0.233560084947E+00
  0.241154876248E+00  0.248996631216E+00  0.257093380492E+00  0.265453415856E+00  0.274085298715E+00
  0.282997868870E+00  0.292200253572E+00  0.301701876868E+00  0.311512469249E+00  0.321642077621E+00
  0.332101075586E+00  0.342900174073E+00  0.354050432303E+00  0.365563269114E+00  0.377450474656E+00
  0.389724222468E+00  0.402397081940E+00  0.415482031187E+00  0.428992470340E+00  0.442942235270E+00
  0.457345611756E+00  0.472217350112E+00  0.487572680300E+00  0.503427327518E+00  0.519797528311E+00
  0.536700047196E+00  0.554152193827E+00  0.572171840730E+00  0.590777441596E+00  0.609988050188E+00
  0.629823339846E+00  0.650303623641E+00  0.671449875172E+00  0.693283750050E+00  0.715827608070E+00
  0.739104536113E+00  0.763138371787E+00  0.787953727841E+00  0.813576017366E+00  0.840031479827E+00
  0.867347207928E+00  0.895551175364E+00  0.924672265460E+00  0.954740300757E+00  0.985786073552E+00
  0.101784137743E+01  0.105093903982E+01  0.108511295562E+01  0.112039812191E+01  0.115683067379E+01
  0.119444792136E+01  0.123328838798E+01  0.127339184968E+01  0.131479937590E+01  0.135755337158E+01
  0.140169762055E+01  0.144727733036E+01  0.149433917863E+01  0.154293136080E+01  0.159310363951E+01
  0.164490739555E+01  0.169839568052E+01  0.175362327107E+01  0.181064672509E+01  0.186952443958E+01
  0.193031671046E+01  0.199308579433E+01  0.205789597222E+01  0.212481361542E+01  0.219390725343E+01
  0.226524764418E+01  0.233890784647E+01  0.241496329477E+01  0.249349187652E+01  0.257457401185E+01
  0.265829273593E+01  0.274473378408E+01  0.283398567946E+01  0.292613982383E+01  0.302129059107E+01
  0.311953542390E+01  0.322097493359E+01  0.332571300308E+01  0.343385689330E+01  0.354551735305E+01
  0.366080873239E+01  0.377984909976E+01  0.390276036292E+01  0.402966839372E+01  0.416070315709E+01
  0.429599884408E+01  0.443569400928E+01  0.457993171276E+01  0.472885966653E+01  0.488263038582E+01
  0.504140134529E+01  0.520533514028E+01  0.537459965332E+01
 aepotential
  0.116494129953E+05  0.117997045660E+05  0.119343628168E+05  0.120523884691E+05  0.121528845023E+05
  0.122350542312E+05  0.122982147231E+05  0.123418114431E+05  0.123654222195E+05  0.123687678706E+05
  0.123517184859E+05  0.123142946991E+05  0.122566709776E+05  0.121791721638E+05  0.120822694564E+05
  0.119665807847E+05  0.118328536286E+05  0.116819578832E+05  0.115148770362E+05  0.113326899192E+05
  0.111365673119E+05  0.109277312158E+05  0.107074707739E+05  0.104771013564E+05  0.102379591563E+05
  0.999138757624E+04  0.973871303103E+04  0.948123950455E+04  0.922023453615E+04  0.895691426940E+04
  0.869243722347E+04  0.842789495644E+04  0.816430627171E+04  0.790261121848E+04  0.764366858570E+04
  0.738825379438E+04  0.713705814407E+04  0.689068972091E+04  0.664967497223E+04  0.641446151476E+04
  0.618542149334E+04  0.596285567447E+04  0.574699802734E+04  0.553802058612E+04  0.533603858586E+04
  0.514111565751E+04  0.495326905167E+04  0.477247476701E+04  0.459867252723E+04  0.443177054568E+04
  0.427165003210E+04  0.411816941684E+04  0.397116824502E+04  0.383047077529E+04  0.369588924177E+04
  0.356722672922E+04  0.344427991538E+04  0.332684118203E+04  0.321470087587E+04  0.310764881129E+04
  0.300547597847E+04  0.290797568667E+04  0.281494465196E+04  0.272618392964E+04  0.264149948476E+04
  0.256070287231E+04  0.248361160035E+04  0.241004943745E+04  0.233984661535E+04  0.227283995953E+04
  0.220887297620E+04  0.214779569697E+04  0.208946486289E+04  0.203374351782E+04  0.198050115294E+04
  0.192961335814E+04  0.188096170609E+04  0.183443353311E+04  0.178992176120E+04  0.174732463386E+04
  0.170654553030E+04  0.166749272381E+04  0.163007916947E+04  0.159422228125E+04  0.155984371176E+04
  0.152686915840E+04  0.149522814075E+04  0.146485381421E+04  0.143568278818E+04  0.140765489570E+04
  0.138071315360E+04  0.135480334294E+04  0.132987417723E+04  0.130587685646E+04  0.128276510191E+04
  0.126049494428E+04  0.123902463809E+04  0.121831449675E+04  0.119832678658E+04  0.117902564721E+04
  0.116037695062E+04  0.114234822803E+04  0.112490854427E+04  0.110802847462E+04  0.109167993934E+04
  0.107583619190E+04  0.106047171782E+04  0.104556216229E+04  0.103108428048E+04  0.101701586532E+04
  0.100333568865E+04  0.990023456490E+03  0.977059749661E+03  0.964425976282E+03  0.952104329959E+03
  0.940077746030E+03  0.928329855519E+03  0.916844958329E+03  0.905607976011E+03  0.894604427609E+03
  0.883820392937E+03  0.873242482892E+03  0.862857815325E+03  0.852653985583E+03  0.842619043570E+03
  0.832741470500E+03  0.823010157684E+03  0.813414385945E+03  0.803943807604E+03  0.794588428876E+03
  0.785338593045E+03  0.776184966257E+03  0.767118523028E+03  0.758130533002E+03  0.749212552352E+03
  0.740356405386E+03  0.731554183365E+03  0.722798232118E+03  0.714081141900E+03  0.705395743605E+03
  0.696735098856E+03  0.688092500864E+03  0.679461463379E+03  0.670835720237E+03  0.662209223066E+03
  0.653576137698E+03  0.644930844049E+03  0.636267935798E+03  0.627582221034E+03  0.618868723026E+03
  0.610122683792E+03  0.601339566429E+03  0.592515059607E+03  0.583645083038E+03  0.574725793650E+03
  0.565753592307E+03  0.556725133167E+03  0.547637332521E+03  0.538487380232E+03  0.529272751944E+03
  0.519991222680E+03  0.510640882357E+03  0.501220152937E+03  0.491727807640E+03  0.482162991498E+03
  0.472525245153E+03  0.462814530394E+03  0.453031258113E+03  0.443176319999E+03  0.433251121655E+03
  0.423257620141E+03  0.413198363538E+03  0.403076534016E+03  0.392895993304E+03  0.382661330731E+03
  0.372377912298E+03  0.362051930479E+03  0.351690452657E+03  0.341301465364E+03  0.330893912474E+03
  0.320477721784E+03  0.310063816279E+03  0.299664102773E+03  0.289291431551E+03  0.278959518716E+03
  0.268682823239E+03  0.258476371792E+03  0.248355526724E+03  0.238335698108E+03  0.228432009383E+03
  0.218658939746E+03  0.209029985521E+03  0.199557407813E+03  0.190252163014E+03  0.181124142503E+03
  0.172182867670E+03  0.163438781620E+03  0.154905224680E+03  0.146601053757E+03  0.138553643741E+03
  0.130801701630E+03  0.123397065224E+03  0.116404270136E+03  0.109897177126E+03  0.103952018924E+03
  0.986375830118E+02  0.940041209102E+02  0.900733345997E+02  0.868317339611E+02  0.842288601393E+02
  0.821807313274E+02  0.805778669808E+02  0.792965243349E+02  0.782111895012E+02  0.772059303079E+02
  0.761823771629E+02  0.750631924362E+02  0.737914627286E+02  0.723276155249E+02  0.706456230847E+02
  0.687296512227E+02  0.665715356071E+02  0.641689826939E+02  0.615242393327E+02  0.586430460708E+02
  0.555337889453E+02  0.522068347734E+02  0.486740555346E+02  0.449485399720E+02  0.410444718398E+02
  0.369771484879E+02  0.327631010722E+02  0.284202800017E+02  0.239682610996E+02  0.194284251031E+02
  0.148240498404E+02  0.101802456600E+02  0.552365598747E+01  0.881860425714E+00 -0.371753235425E+01
 -0.824799826197E+01 -0.126851056415E+02 -0.170068170755E+02 -0.211921810875E+02 -0.252174280931E+02
 -0.290490197021E+02 -0.326348174271E+02 -0.358971881900E+02 -0.387344947785E+02 -0.410372106168E+02
 -0.427204251029E+02 -0.437652347304E+02 -0.442499654815E+02 -0.443450617969E+02 -0.442597260609E+02
 -0.441683539120E+02 -0.441680032542E+02 -0.442869264368E+02 -0.445192038408E+02 -0.448539972267E+02
 -0.452882648876E+02 -0.458271421224E+02 -0.464793196305E+02 -0.472523497663E+02 -0.481499178525E+02
 -0.491711755254E+02 -0.503114030841E+02 -0.515631733845E+02 -0.529174777643E+02 -0.543645626111E+02
 -0.558944433280E+02 -0.574971507721E+02 -0.591627885167E+02 -0.608814673056E+02 -0.626431688793E+02
 -0.644375700308E+02 -0.662538498637E+02 -0.680805013251E+02 -0.699051748566E+02 -0.717145865171E+02
 -0.734945301387E+02 -0.752300770198E+02 -0.769059647885E+02 -0.785072539360E+02 -0.800201806388E+02
 -0.814330711731E+02 -0.827370219381E+02 -0.839258782224E+02 -0.849949775810E+02 -0.859382924014E+02
 -0.867443673086E+02 -0.873929229486E+02 -0.878555365664E+02 -0.881033861287E+02 -0.881207036757E+02
 -0.879162523346E+02 -0.875236590161E+02 -0.869891726383E+02 -0.863553947748E+02 -0.856514320297E+02
 -0.848922646845E+02 -0.840833622193E+02 -0.832257379515E+02 -0.823191931218E+02 -0.813637479098E+02
 -0.803600188966E+02 -0.793091855886E+02 -0.782128886285E+02 -0.770731621300E+02 -0.758924196587E+02
 -0.746734487090E+02 -0.734194038807E+02 -0.721337809175E+02 -0.708203632502E+02 -0.694831594092E+02
 -0.681263085455E+02 -0.667539894717E+02 -0.653703115747E+02 -0.639792032776E+02 -0.625842991422E+02
 -0.611888339167E+02 -0.597955512304E+02 -0.584066454628E+02 -0.570237469040E+02 -0.556479673543E+02
 -0.542800130921E+02 -0.529203425580E+02 -0.515693762815E+02 -0.502277008362E+02 -0.488962510937E+02
 -0.475764377390E+02 -0.462702039261E+02 -0.449800061405E+02 -0.437087243646E+02 -0.424595132839E+02
 -0.412356100961E+02 -0.400401171716E+02 -0.388757807337E+02 -0.377447896652E+02 -0.366486198090E+02
 -0.355879460719E+02 -0.345626357534E+02 -0.335718228532E+02 -0.326140483803E+02 -0.316874406572E+02
 -0.307899056379E+02 -0.299193007058E+02 -0.290735739470E+02 -0.282508609860E+02 -0.274495401500E+02
 -0.266682524243E+02 -0.259058952240E+02 -0.251615991334E+02 -0.244346954505E+02 -0.237246804574E+02
 -0.230311804244E+02 -0.223539197297E+02 -0.216926932655E+02 -0.210473434667E+02 -0.204177417952E+02
 -0.198037742349E+02 -0.192053302407E+02 -0.186222945698E+02
 core charge-density
  0.262306823361E-02  0.278989481297E-02  0.296731036578E-02  0.315598491826E-02  0.335663068902E-02
  0.357000472617E-02  0.379691170726E-02  0.403820691208E-02  0.429479937869E-02  0.456765525369E-02
  0.485780134852E-02  0.516632891424E-02  0.549439764770E-02  0.584323994323E-02  0.621416540417E-02
  0.660856563015E-02  0.702791929615E-02  0.747379754083E-02  0.794786968240E-02  0.845190928124E-02
  0.898780056980E-02  0.955754527135E-02  0.101632698299E-01  0.108072330759E-01  0.114918343523E-01
  0.122196221283E-01  0.129933031281E-01  0.138157520054E-01  0.146900215927E-01  0.156193537613E-01
  0.166071909233E-01  0.176571882143E-01  0.187732263933E-01  0.199594255016E-01  0.212201593207E-01
  0.225600706757E-01  0.239840876285E-01  0.254974406114E-01  0.271056805505E-01  0.288146980328E-01
  0.306307435736E-01  0.325604490420E-01  0.346108503046E-01  0.367894111537E-01  0.391040485840E-01
  0.415631594887E-01  0.441756488459E-01  0.469509594727E-01  0.498991034219E-01  0.530306951049E-01
  0.563569862241E-01  0.598899026010E-01  0.636420829901E-01  0.676269199729E-01  0.718586030248E-01
  0.763521638561E-01  0.811235241255E-01  0.861895456317E-01  0.915680830864E-01  0.972780395788E-01
  0.103339424839E+00  0.109773416411E+00  0.116602423850E+00  0.123850156053E+00  0.131541691838E+00
  0.139703553875E+00  0.148363786103E+00  0.157552034708E+00  0.167299632795E+00  0.177639688848E+00
  0.188607179070E+00  0.200239043702E+00  0.212574287396E+00  0.225654083733E+00  0.239521883928E+00
  0.254223529789E+00  0.269807370967E+00  0.286324386510E+00  0.303828310722E+00  0.322375763314E+00
  0.342026383795E+00  0.362842970024E+00  0.384891620827E+00  0.408241882529E+00  0.432966899220E+00
  0.459143566526E+00  0.486852688622E+00  0.516179138130E+00  0.547212018540E+00  0.580044828674E+00
  0.614775628672E+00  0.651507206887E+00  0.690347246991E+00  0.731408494490E+00  0.774808921767E+00
  0.820671890626E+00  0.869126311207E+00  0.920306796023E+00  0.974353807689E+00  0.103141379881E+01
  0.109163934229E+01  0.115518925018E+01  0.122222867896E+01  0.129292921902E+01  0.136746896586E+01
  0.144603257016E+01  0.152881126407E+01  0.161600286027E+01  0.170781172046E+01  0.180444868972E+01
  0.190613099256E+01  0.201308208660E+01  0.212553146932E+01  0.224371443301E+01  0.236787176293E+01
  0.249824937329E+01  0.263509787540E+01  0.277867207203E+01  0.292923037195E+01  0.308703411810E+01
  0.325234682294E+01  0.342543330411E+01  0.360655871357E+01  0.379598745314E+01  0.399398196954E+01
  0.420080142191E+01  0.441670021504E+01  0.464192639154E+01  0.487671987687E+01  0.512131057130E+01
  0.537591628350E+01  0.564074050139E+01  0.591596999660E+01  0.620177226002E+01  0.649829276744E+01
  0.680565207548E+01  0.712394275017E+01  0.745322613236E+01  0.779352894653E+01  0.814483976236E+01
  0.850710532125E+01  0.888022674331E+01  0.926405563409E+01  0.965839011419E+01  0.100629707994E+02
  0.104774767636E+02  0.109015215216E+02  0.113346490750E+02  0.117763300688E+02  0.122259581140E+02
  0.126828463347E+02  0.131462242089E+02  0.136152347731E+02  0.140889322723E+02  0.145662803384E+02
  0.150461507891E+02  0.155273231443E+02  0.160084849583E+02  0.164882330760E+02  0.169650759171E+02
  0.174374369005E+02  0.179036591157E+02  0.183620113481E+02  0.188106955630E+02  0.192478559427E+02
  0.196715895641E+02  0.200799587926E+02  0.204710054501E+02  0.208427667976E+02  0.211932933486E+02
  0.215206685022E+02  0.218230299551E+02  0.220985928127E+02  0.223456742829E+02  0.225627197898E+02
  0.227483302974E+02  0.229012905832E+02  0.230205981444E+02  0.231054923670E+02  0.231554835272E+02
  0.231703811398E+02  0.231503211117E+02  0.230957911036E+02  0.230076534593E+02  0.228871650161E+02
  0.227359930811E+02  0.225562268345E+02  0.223503834155E+02  0.221214079537E+02  0.218726668361E+02
  0.216079335459E+02  0.213313664816E+02  0.210474782536E+02  0.207610960773E+02  0.204773130228E+02
  0.202014300488E+02  0.199388889392E+02  0.196951964727E+02  0.194758403843E+02  0.192861979223E+02
  0.191314380549E+02  0.190164186623E+02  0.189455802236E+02  0.189228379556E+02  0.189514743901E+02
  0.190340347820E+02  0.191722278991E+02  0.193668349405E+02  0.196176294605E+02  0.199233112330E+02
  0.202814569678E+02  0.206884906675E+02  0.211396761899E+02  0.216291342440E+02  0.221498855996E+02
  0.226939217549E+02  0.232523037010E+02  0.238152887722E+02  0.243724848784E+02  0.249130306658E+02
  0.254257993480E+02  0.258996230993E+02  0.263235340460E+02  0.266870170497E+02  0.269802687080E+02
  0.271944563127E+02  0.273219699458E+02  0.273566604812E+02  0.272940560227E+02  0.271315492748E+02
  0.268685485358E+02  0.265065854410E+02  0.260493732951E+02  0.255028108039E+02  0.248749272820E+02
  0.241757669260E+02  0.234172115173E+02  0.226127428930E+02  0.217771486653E+02  0.209261768937E+02
  0.200761476404E+02  0.192435314591E+02  0.184445067316E+02  0.176945092601E+02  0.170077884635E+02
  0.163969848131E+02  0.158727427011E+02  0.154433718701E+02  0.151145689027E+02  0.148892092323E+02
  0.147672184081E+02  0.147455317061E+02  0.148181505554E+02  0.149763022553E+02  0.152087039328E+02
  0.155019206315E+02  0.158407968139E+02  0.162089371362E+02  0.165892162816E+02  0.169643023116E+02
  0.173171791246E+02  0.176316520986E+02  0.178928194239E+02  0.180874915646E+02  0.182045429745E+02
  0.182351834623E+02  0.181731408173E+02  0.180147509833E+02  0.177589565881E+02  0.174072188027E+02
  0.169633509785E+02  0.164332852886E+02  0.158247855589E+02  0.151471206386E+02  0.144107130348E+02
  0.136267772255E+02  0.128069611463E+02  0.119630029505E+02  0.111064134021E+02  0.102481923441E+02
  0.939858565795E+01  0.856688698061E+01  0.776128696172E+01  0.698877040271E+01  0.625506052623E+01
  0.556460741949E+01  0.492061714735E+01  0.432511577820E+01  0.377904156908E+01  0.328235791766E+01
  0.283417915382E+01  0.243290192620E+01  0.207633673395E+01  0.176183678522E+01  0.148642357262E+01
  0.124690863660E+01  0.104000850012E+01  0.862446951125E+00  0.711037777934E+00  0.582745895641E+00
  0.474728173117E+00  0.384357363266E+00  0.309234137658E+00  0.247190411394E+00  0.196286239608E+00
  0.154801888116E+00  0.121226334890E+00  0.942432701862E-01  0.727155161229E-01  0.556686405096E-01
  0.422743915352E-01  0.318344385616E-01  0.237647777018E-01  0.175810532531E-01  0.128849579580E-01
  0.935180535231E-02  0.671931346473E-02  0.477759834740E-02  0.336034562752E-02  0.233710624107E-02
  0.160664685406E-02  0.109127479230E-02  0.732050550852E-03  0.484797426387E-03  0.316817002119E-03
  0.204220734648E-03  0.129791408836E-03  0.812933932976E-04  0.501570868632E-04  0.304703052850E-04
  0.182172339645E-04  0.107136033722E-04  0.619460910697E-05  0.351953456978E-05  0.196384056198E-05
  0.107552752749E-05  0.577780856145E-06  0.304263699821E-06  0.156959900003E-06  0.792633833704E-07
  0.391546881080E-07  0.189057175082E-07  0.891582646639E-08  0.410336831971E-08  0.184150280840E-08
  0.805176746122E-09  0.342706563161E-09  0.141867392640E-09  0.570662154596E-10  0.222848311907E-10
  0.844034643472E-11  0.309747119588E-11  0.110030613443E-11  0.377945450387E-12  0.125397878572E-12
  0.401437701100E-13  0.123856537633E-13  0.367859666710E-14  0.105046243529E-14  0.288050709778E-15
  0.757502373141E-16  0.190784523813E-16  0.459561980435E-17
 kinetic energy-density
  0.524704922500E+04  0.526698144893E+04  0.528790381152E+04  0.530984856182E+04  0.533284917775E+04
  0.535694033509E+04  0.538215814844E+04  0.540854018240E+04  0.543612538166E+04  0.546495449759E+04
  0.549506991711E+04  0.552651589082E+04  0.555933857785E+04  0.559358635891E+04  0.562930945891E+04
  0.566656127072E+04  0.570539643581E+04  0.574587313540E+04  0.578805206156E+04  0.583199680500E+04
  0.587777399111E+04  0.592545331633E+04  0.597510824693E+04  0.602681532953E+04  0.608065524787E+04
  0.613671231383E+04  0.619507485689E+04  0.625583572712E+04  0.631909204196E+04  0.638494558508E+04
  0.645350297023E+04  0.652487602704E+04  0.659918179530E+04  0.667654288925E+04  0.675708777895E+04
  0.684095097319E+04  0.692827338526E+04  0.701920256455E+04  0.711389309412E+04  0.721250686200E+04
  0.731521344251E+04  0.742219048253E+04  0.753362407845E+04  0.764970922437E+04  0.777065023337E+04
  0.789666122300E+04  0.802796660686E+04  0.816480161947E+04  0.830741286870E+04  0.845605891820E+04
  0.861101089917E+04  0.877255315639E+04  0.894098393741E+04  0.911661607366E+04  0.929977778526E+04
  0.949081340224E+04  0.969008424946E+04  0.989796949987E+04  0.101148670398E+05  0.103411945266E+05
  0.105773902372E+05  0.108239142878E+05  0.110812495539E+05  0.113499030047E+05  0.116304067478E+05
  0.119233193376E+05  0.122292271341E+05  0.125487455658E+05  0.128825206664E+05  0.132312304500E+05
  0.135955866019E+05  0.139763358891E+05  0.143742620852E+05  0.147901874759E+05  0.152249747789E+05
  0.156795290550E+05  0.161547995669E+05  0.166517818142E+05  0.171715196293E+05  0.177151072897E+05
  0.182836917451E+05  0.188784748838E+05  0.195007158440E+05  0.201517334443E+05  0.208329085870E+05
  0.215456867929E+05  0.222915807205E+05  0.230721727704E+05  0.238891177177E+05  0.247441452370E+05
  0.256390628796E+05  0.265757582414E+05  0.275562022102E+05  0.285824511072E+05  0.296566496261E+05
  0.307810332116E+05  0.319579306075E+05  0.331897663372E+05  0.344790628387E+05  0.358284426988E+05
  0.372406305790E+05  0.387184550652E+05  0.402648500243E+05  0.418828560318E+05  0.435756212887E+05
  0.453464019863E+05  0.471985628115E+05  0.491355763157E+05  0.511610222649E+05  0.532785862229E+05
  0.554920573652E+05  0.578053258295E+05  0.602223790293E+05  0.627472972321E+05  0.653842480954E+05
  0.681374802235E+05  0.710113154488E+05  0.740101399888E+05  0.771383941919E+05  0.804005607337E+05
  0.838011514818E+05  0.873446922824E+05  0.910357063548E+05  0.948786953451E+05  0.988781187061E+05
  0.103038370511E+06  0.107363754319E+06  0.111858455335E+06  0.116526510187E+06  0.121371774030E+06
  0.126397884826E+06  0.131608224869E+06  0.137005879423E+06  0.142593591991E+06  0.148373717461E+06
  0.154348170981E+06  0.160518374717E+06  0.166885201377E+06  0.173448914508E+06  0.180209106438E+06
  0.187164632949E+06  0.194313546066E+06  0.201653024300E+06  0.209179300989E+06  0.216887591363E+06
  0.224772018107E+06  0.232825536983E+06  0.241039861960E+06  0.249405391507E+06  0.257911136229E+06
  0.266544649108E+06  0.275291958947E+06  0.284137508530E+06  0.293064098185E+06  0.302052836517E+06
  0.311083099165E+06  0.320132497317E+06  0.329176857600E+06  0.338190214393E+06  0.347144816947E+06
  0.356011152310E+06  0.364757986092E+06  0.373352422613E+06  0.381759986195E+06  0.389944724949E+06
  0.397869338611E+06  0.405495331908E+06  0.412783194149E+06  0.419692606420E+06  0.426182676619E+06
  0.432212202722E+06  0.437739964236E+06  0.442725041100E+06  0.447127159170E+06  0.450907060552E+06
  0.454026896694E+06  0.456450641304E+06  0.458144519836E+06  0.459077451166E+06  0.459221496722E+06
  0.458552311538E+06  0.457049590960E+06  0.454697506189E+06  0.451485121212E+06  0.447406783183E+06
  0.442462477984E+06  0.436658142339E+06  0.430005923859E+06  0.422524380475E+06  0.414238610962E+06
  0.405180308962E+06  0.395387733571E+06  0.384905590809E+06  0.373784821505E+06  0.362082292795E+06
  0.349860392238E+06  0.337186525343E+06  0.324132519306E+06  0.310773937512E+06  0.297189310970E+06
  0.283459293382E+06  0.269665753604E+06  0.255890807323E+06  0.242215806251E+06  0.228720304759E+06
  0.215481015364E+06  0.202570781252E+06  0.190057590877E+06  0.178003661073E+06  0.166464612886E+06
  0.155488760025E+06  0.145116524718E+06  0.135379990866E+06  0.126302600494E+06  0.117898996565E+06
  0.110175013105E+06  0.103127811911E+06  0.967461637631E+05  0.910108700486E+05  0.858953186592E+05
  0.813661649673E+05  0.773841254550E+05  0.739048687208E+05  0.708799852253E+05  0.682580153956E+05
  0.659855136834E+05  0.640081255514E+05  0.622716540932E+05  0.607230936031E+05  0.593116083898E+05
  0.579894366428E+05  0.567127012770E+05  0.554421115663E+05  0.541435421221E+05  0.527884781716E+05
  0.513543188201E+05  0.498245329519E+05  0.481886653495E+05  0.464421937353E+05  0.445862413412E+05
  0.426271532063E+05  0.405759491102E+05  0.384476706589E+05  0.362606445217E+05  0.340356873930E+05
  0.317952794217E+05  0.295627305987E+05  0.273613617223E+05  0.252137109988E+05  0.231407839967E+05
  0.211613758846E+05  0.192914788961E+05  0.175438494881E+05  0.159277504875E+05  0.144488915782E+05
  0.131095411958E+05  0.119087555942E+05  0.108426769512E+05  0.990488118724E+04  0.908677455641E+04
  0.837803580779E+04  0.776709064400E+04  0.724159845947E+04  0.678892962926E+04  0.639661277299E+04
  0.605273395252E+04  0.574627329731E+04  0.546736874038E+04  0.520750163808E+04  0.495960365641E+04
  0.471808917937E+04  0.447882092378E+04  0.423901934135E+04  0.399712805778E+04  0.375264825280E+04
  0.350595444597E+04  0.325810345787E+04  0.301064634862E+04  0.276545161221E+04  0.252454541544E+04
  0.228997368088E+04  0.206368655913E+04  0.184744827042E+04  0.164276995927E+04  0.145086480498E+04
  0.127262490419E+04  0.110861391993E+04  0.959078379223E+03  0.823971241268E+03  0.702986461087E+03
  0.595600860949E+03  0.501119051197E+03  0.418716716812E+03  0.347478338032E+03  0.286428175648E+03
  0.234556951786E+03  0.190848297020E+03  0.154306369105E+03  0.123983811978E+03  0.990009445837E+02
  0.785597677120E+02  0.619484719749E+02  0.485407294965E+02  0.377917056120E+02  0.292323226005E+02
  0.224626426214E+02  0.171448624670E+02  0.129962415513E+02  0.978220085839E+01  0.730977348139E+01
  0.542153486264E+01  0.399009297812E+01  0.291317667144E+01  0.210932661721E+01  0.151416847980E+01
  0.107723048417E+01  0.759257351070E+00  0.529967212721E+00  0.366197024923E+00  0.250383567447E+00
  0.169330568945E+00  0.113216964267E+00  0.748062477763E-01  0.488218869245E-01  0.314585736036E-01
  0.200035425242E-01  0.125462142928E-01  0.775800530932E-02  0.472728599607E-02  0.283719790938E-02
  0.167638024089E-02  0.974644083328E-03  0.557301427599E-03  0.313240094499E-03  0.172969927118E-03
  0.937824194980E-04  0.498962815512E-04  0.260336307392E-04  0.133115857657E-04  0.666571390665E-05
  0.326635796749E-05  0.156511254940E-05  0.732729783276E-06  0.334887652420E-06  0.149293902829E-06
  0.648626100255E-07  0.274390937195E-07  0.112920749186E-07  0.451652028901E-08  0.175408021153E-08
  0.660830362473E-09  0.241265508279E-09  0.852753976925E-10  0.291488876140E-10  0.962549985872E-11
  0.306723438496E-11  0.942100651925E-12  0.278588216328E-12  0.792163814349E-13  0.216325784640E-13
  0.566602568751E-14  0.142148626943E-14  0.341112668536E-15
 mkinetic energy-density pseudized
  0.170285465721E-05  0.181540040526E-05  0.193538457162E-05  0.206329877920E-05  0.219966714342E-05
  0.234504841975E-05  0.250003829314E-05  0.266527181879E-05  0.284142602421E-05  0.302922268328E-05
  0.322943127366E-05  0.344287212960E-05  0.367041980321E-05  0.391300664785E-05  0.417162663832E-05
  0.444733944362E-05  0.474127476878E-05  0.505463698373E-05  0.538871005810E-05  0.574486282212E-05
  0.612455457527E-05  0.652934106564E-05  0.696088086439E-05  0.742094216161E-05  0.791141001126E-05
  0.843429405504E-05  0.899173675662E-05  0.958602218019E-05  0.102195853492E-04  0.108950222234E-04
  0.116151003361E-04  0.123827701329E-04  0.132011770617E-04  0.140736744605E-04  0.150038372971E-04
  0.159954768175E-04  0.170526561620E-04  0.181797070134E-04  0.193812473454E-04  0.206622003447E-04
  0.220278145829E-04  0.234836855218E-04  0.250357784407E-04  0.266904528779E-04  0.284544886885E-04
  0.303351138239E-04  0.323400339479E-04  0.344774640090E-04  0.367561619012E-04  0.391854643475E-04
  0.417753251565E-04  0.445363560071E-04  0.474798699279E-04  0.506179276516E-04  0.539633870323E-04
  0.575299557285E-04  0.613322473689E-04  0.653858414298E-04  0.697073470696E-04  0.743144711834E-04
  0.792260909538E-04  0.844623311982E-04  0.900446468270E-04  0.959959107526E-04  0.102340507607E-03
  0.109104433656E-03  0.116315403312E-03  0.124002962693E-03  0.132198610680E-03  0.140935927983E-03
  0.150250714728E-03  0.160181137143E-03  0.170767883939E-03  0.182054333025E-03  0.194086729240E-03
  0.206914373833E-03  0.220589826464E-03  0.235169120560E-03  0.250711992898E-03  0.267282128364E-03
  0.284947420889E-03  0.303780251629E-03  0.323857785527E-03  0.345262287483E-03  0.368081459409E-03
  0.392408799566E-03  0.418343985649E-03  0.445993283186E-03  0.475469980930E-03  0.506894855026E-03
  0.540396663852E-03  0.576112675561E-03  0.614189230491E-03  0.654782340739E-03  0.698058329362E-03
  0.744194511816E-03  0.793379922433E-03  0.845816088902E-03  0.901717857935E-03  0.961314275497E-03
  0.102484952520E-02  0.109258392871E-02  0.116479501227E-02  0.124177864370E-02  0.132385024449E-02
  0.141134608208E-02  0.150462464743E-02  0.160406812370E-02  0.171008395191E-02  0.182310650008E-02
  0.194359884271E-02  0.207205465775E-02  0.220900024894E-02  0.235499670181E-02  0.251064218209E-02
  0.267657438596E-02  0.285347315221E-02  0.304206324697E-02  0.324311733240E-02  0.345745913151E-02
  0.368596680203E-02  0.392957653316E-02  0.418928637992E-02  0.446616035075E-02  0.476133276508E-02
  0.507601289880E-02  0.541148993638E-02  0.576913825021E-02  0.615042302846E-02  0.655690627462E-02
  0.699025320315E-02  0.745223905752E-02  0.794475637829E-02  0.846982275101E-02  0.902958906570E-02
  0.962634832137E-02  0.102625450118E-01  0.109407851305E-01  0.116638468363E-01  0.124346918225E-01
  0.132564774355E-01  0.141325695942E-01  0.150665565603E-01  0.160622636175E-01  0.171237687181E-01
  0.182554191619E-01  0.194618493743E-01  0.207479998554E-01  0.221191373793E-01  0.235808765230E-01
  0.251392026137E-01  0.268004961877E-01  0.285715590593E-01  0.304596421059E-01  0.324724748813E-01
  0.346182971773E-01  0.369058926610E-01  0.393446247236E-01  0.419444746854E-01  0.447160825103E-01
  0.476707901946E-01  0.508206880038E-01  0.541786637430E-01  0.577584552586E-01  0.615747063820E-01
  0.656430265368E-01  0.699800542504E-01  0.746035248199E-01  0.795323424033E-01  0.847866568205E-01
  0.903879453696E-01  0.963590999799E-01  0.102724520045E+00  0.109510211304E+00  0.116743891151E+00
  0.124455100789E+00  0.132675324668E+00  0.141438117664E+00  0.150779240485E+00  0.160736803846E+00
  0.171351421940E+00  0.182666375805E+00  0.194727787206E+00  0.207584803677E+00  0.221289795436E+00
  0.235898564886E+00  0.251470569489E+00  0.268069158835E+00  0.285761826761E+00  0.304620479437E+00
  0.324721720377E+00  0.346147153394E+00  0.368983704546E+00  0.393323964207E+00  0.419266550428E+00
  0.446916494810E+00  0.476385652184E+00  0.507793135441E+00  0.541265776898E+00  0.576938617674E+00
  0.614955426583E+00  0.655469250105E+00  0.698642995073E+00  0.744650045723E+00  0.793674916834E+00
  0.845913944713E+00  0.901576017786E+00  0.960883348626E+00  0.102407228920E+01  0.109139419119E+01
  0.116311631311E+01  0.123952277603E+01  0.132091556957E+01  0.140761560977E+01  0.149996385026E+01
  0.159832244810E+01  0.170307598538E+01  0.181463274737E+01  0.193342605790E+01  0.205991567187E+01
  0.219458922484E+01  0.233796373867E+01  0.249058718163E+01  0.265304008091E+01  0.282593718400E+01
  0.300992916485E+01  0.320570436932E+01  0.341399059265E+01  0.363555688072E+01  0.387121534417E+01
  0.412182297282E+01  0.438828343504E+01  0.467154884380E+01  0.497262146806E+01  0.529255536409E+01
  0.563245789740E+01  0.599349112088E+01  0.637687296946E+01  0.678387822555E+01  0.721583920256E+01
  0.767414608610E+01  0.816024686419E+01  0.867564676790E+01  0.922190713366E+01  0.980064358657E+01
  0.104135234314E+02  0.110622621238E+02  0.117486186791E+02  0.124743898590E+02  0.132414029599E+02
  0.140515070047E+02  0.149065621235E+02  0.158084268834E+02  0.167589433082E+02  0.177599193036E+02
  0.188131081839E+02  0.199201849704E+02  0.210827191115E+02  0.223021432574E+02  0.235797177030E+02
  0.249164901027E+02  0.263132500574E+02  0.277704781756E+02  0.292882892265E+02  0.308663690343E+02
  0.325039048076E+02  0.341995086728E+02  0.359511342754E+02  0.377559864482E+02  0.396104241181E+02
  0.415098568445E+02  0.434486356619E+02  0.454199392417E+02  0.474156568115E+02  0.494262697723E+02
  0.514407345573E+02  0.534463699795E+02  0.554287531331E+02  0.573716288439E+02  0.592568387147E+02
  0.610642769646E+02  0.627718815151E+02  0.643556700901E+02  0.657898324336E+02  0.670468910453E+02
  0.680979439936E+02  0.689130042692E+02  0.694614506280E+02  0.697126047288E+02  0.696364483457E+02
  0.692044922015E+02  0.683908041563E+02  0.671731986568E+02  0.655345810102E+02  0.634644286841E+02
  0.609603769071E+02  0.580298568883E+02  0.546917116197E+02  0.509776863347E+02  0.469336585081E+02
  0.426204365598E+02  0.381139187362E+02  0.335043665956E+02  0.288945151015E+02  0.243962192106E+02
  0.201253327333E+02  0.161945390672E+02  0.127039173965E+02  0.972914638037E+01  0.730743578092E+01
  0.542153486264E+01  0.399009297812E+01  0.291317667144E+01  0.210932661721E+01  0.151416847980E+01
  0.107723048417E+01  0.759257351070E+00  0.529967212721E+00  0.366197024923E+00  0.250383567447E+00
  0.169330568945E+00  0.113216964267E+00  0.748062477763E-01  0.488218869245E-01  0.314585736036E-01
  0.200035425242E-01  0.125462142928E-01  0.775800530932E-02  0.472728599607E-02  0.283719790938E-02
  0.167638024089E-02  0.974644083328E-03  0.557301427599E-03  0.313240094499E-03  0.172969927118E-03
  0.937824194980E-04  0.498962815512E-04  0.260336307392E-04  0.133115857657E-04  0.666571390665E-05
  0.326635796749E-05  0.156511254940E-05  0.732729783276E-06  0.334887652420E-06  0.149293902829E-06
  0.648626100255E-07  0.274390937195E-07  0.112920749186E-07  0.451652028901E-08  0.175408021153E-08
  0.660830362473E-09  0.241265508279E-09  0.852753976925E-10  0.291488876140E-10  0.962549985872E-11
  0.306723438496E-11  0.942100651925E-12  0.278588216328E-12  0.792163814349E-13  0.216325784640E-13
  0.566602568751E-14  0.142148626943E-14  0.341112668536E-15
 local pseudopotential core
 -0.147453602140E+03 -0.147454439186E+03 -0.147455249792E+03 -0.147456034896E+03 -0.147456795301E+03
 -0.147457531787E+03 -0.147458245111E+03 -0.147458936004E+03 -0.147459605172E+03 -0.147460253302E+03
 -0.147460881060E+03 -0.147461489093E+03 -0.147462078021E+03 -0.147462648451E+03 -0.147463200965E+03
 -0.147463736139E+03 -0.147464254514E+03 -0.147464756624E+03 -0.147465242991E+03 -0.147465714110E+03
 -0.147466170469E+03 -0.147466612538E+03 -0.147467040766E+03 -0.147467455605E+03 -0.147467857474E+03
 -0.147468246791E+03 -0.147468623963E+03 -0.147468989371E+03 -0.147469343398E+03 -0.147469686411E+03
 -0.147470018766E+03 -0.147470340807E+03 -0.147470652870E+03 -0.147470955279E+03 -0.147471248349E+03
 -0.147471532389E+03 -0.147471807695E+03 -0.147472074554E+03 -0.147472333251E+03 -0.147472584055E+03
 -0.147472827234E+03 -0.147473063046E+03 -0.147473291740E+03 -0.147473513563E+03 -0.147473728755E+03
 -0.147473937544E+03 -0.147474140158E+03 -0.147474336819E+03 -0.147474527741E+03 -0.147474713136E+03
 -0.147474893210E+03 -0.147475068164E+03 -0.147475238199E+03 -0.147475403502E+03 -0.147475564271E+03
 -0.147475720689E+03 -0.147475872940E+03 -0.147476021206E+03 -0.147476165666E+03 -0.147476306501E+03
 -0.147476443877E+03 -0.147476577976E+03 -0.147476708968E+03 -0.147476837021E+03 -0.147476962313E+03
 -0.147477085009E+03 -0.147477205283E+03 -0.147477323304E+03 -0.147477439247E+03 -0.147477553285E+03
 -0.147477665593E+03 -0.147477776348E+03 -0.147477885730E+03 -0.147477993925E+03 -0.147478101116E+03
 -0.147478207493E+03 -0.147478313256E+03 -0.147478418602E+03 -0.147478523734E+03 -0.147478628864E+03
 -0.147478734216E+03 -0.147478840014E+03 -0.147478946489E+03 -0.147479053891E+03 -0.147479162468E+03
 -0.147479272488E+03 -0.147479384224E+03 -0.147479497966E+03 -0.147479614017E+03 -0.147479732689E+03
 -0.147479854318E+03 -0.147479979253E+03 -0.147480107858E+03 -0.147480240521E+03 -0.147480377655E+03
 -0.147480519683E+03 -0.147480667065E+03 -0.147480820277E+03 -0.147480979830E+03 -0.147481146258E+03
 -0.147481320136E+03 -0.147481502064E+03 -0.147481692683E+03 -0.147481892669E+03 -0.147482102744E+03
 -0.147482323671E+03 -0.147482556261E+03 -0.147482801378E+03 -0.147483059935E+03 -0.147483332907E+03
 -0.147483621328E+03 -0.147483926299E+03 -0.147484248987E+03 -0.147484590639E+03 -0.147484952577E+03
 -0.147485336212E+03 -0.147485743039E+03 -0.147486174658E+03 -0.147486632764E+03 -0.147487119165E+03
 -0.147487635786E+03 -0.147488184672E+03 -0.147488768009E+03 -0.147489388115E+03 -0.147490047464E+03
 -0.147490748688E+03 -0.147491494588E+03 -0.147492288151E+03 -0.147493132557E+03 -0.147494031186E+03
 -0.147494987644E+03 -0.147496005766E+03 -0.147497089636E+03 -0.147498243608E+03 -0.147499472310E+03
 -0.147500780672E+03 -0.147502173943E+03 -0.147503657708E+03 -0.147505237917E+03 -0.147506920896E+03
 -0.147508713383E+03 -0.147510622547E+03 -0.147512656016E+03 -0.147514821903E+03 -0.147517128843E+03
 -0.147519586019E+03 -0.147522203199E+03 -0.147524990765E+03 -0.147527959762E+03 -0.147531121930E+03
 -0.147534489742E+03 -0.147538076458E+03 -0.147541896165E+03 -0.147545963818E+03 -0.147550295311E+03
 -0.147554907509E+03 -0.147559818311E+03 -0.147565046714E+03 -0.147570612870E+03 -0.147576538136E+03
 -0.147582845164E+03 -0.147589557947E+03 -0.147596701895E+03 -0.147604303914E+03 -0.147612392472E+03
 -0.147620997673E+03 -0.147630151347E+03 -0.147639887111E+03 -0.147650240463E+03 -0.147661248851E+03
 -0.147672951753E+03 -0.147685390767E+03 -0.147698609671E+03 -0.147712654503E+03 -0.147727573641E+03
 -0.147743417851E+03 -0.147760240363E+03 -0.147778096908E+03 -0.147797045771E+03 -0.147817147822E+03
 -0.147838466528E+03 -0.147861067960E+03 -0.147885020779E+03 -0.147910396196E+03 -0.147937267911E+03
 -0.147965712034E+03 -0.147995806958E+03 -0.148027633211E+03 -0.148061273266E+03 -0.148096811303E+03
 -0.148134332935E+03 -0.148173924881E+03 -0.148215674566E+03 -0.148259669694E+03 -0.148305997731E+03
 -0.148354745328E+03 -0.148405997689E+03 -0.148459837841E+03 -0.148516345858E+03 -0.148575597999E+03
 -0.148637665763E+03 -0.148702614899E+03 -0.148770504340E+03 -0.148841385079E+03 -0.148915299005E+03
 -0.148992277710E+03 -0.149072341274E+03 -0.149155497055E+03 -0.149241738532E+03 -0.149331044163E+03
 -0.149423376381E+03 -0.149518680689E+03 -0.149616884929E+03 -0.149717898759E+03 -0.149821613396E+03
 -0.149927901644E+03 -0.150036618290E+03 -0.150147600878E+03 -0.150260670931E+03 -0.150375635645E+03
 -0.150492290099E+03 -0.150610419994E+03 -0.150729804925E+03 -0.150850222217E+03 -0.150971451274E+03
 -0.151093278442E+03 -0.151215502306E+03 -0.151337939382E+03 -0.151460430112E+03 -0.151582845059E+03
 -0.151705091194E+03 -0.151827118145E+03 -0.151948924274E+03 -0.152070562461E+03 -0.152192145424E+03
 -0.152313850480E+03 -0.152435923601E+03 -0.152558682674E+03 -0.152682519874E+03 -0.152807903105E+03
 -0.152935376457E+03 -0.153065559705E+03 -0.153199146847E+03 -0.153336903772E+03 -0.153479665095E+03
 -0.153628330295E+03 -0.153783859232E+03 -0.153947267165E+03 -0.154119619369E+03 -0.154302025417E+03
 -0.154495633198E+03 -0.154701622662E+03 -0.154921199255E+03 -0.155155586958E+03 -0.155406020756E+03
 -0.155673738327E+03 -0.155959970663E+03 -0.156265931265E+03 -0.156592803530E+03 -0.156941725870E+03
 -0.157313774093E+03 -0.157709940549E+03 -0.158131109532E+03 -0.158578028455E+03 -0.159051274322E+03
 -0.159551215081E+03 -0.160077965478E+03 -0.160631337101E+03 -0.161210782406E+03 -0.161815332588E+03
 -0.162443529284E+03 -0.163093350254E+03 -0.163762129330E+03 -0.164446471159E+03 -0.165142161496E+03
 -0.165844074141E+03 -0.166546075925E+03 -0.167240931575E+03 -0.167920210694E+03 -0.168574199497E+03
 -0.169191820324E+03 -0.169760562260E+03 -0.170266426347E+03 -0.170693888987E+03 -0.171025887068E+03
 -0.171243828362E+03 -0.171327630818E+03 -0.171255794917E+03 -0.171005514384E+03 -0.170552832747E+03
 -0.169872856626E+03 -0.168940041566E+03 -0.167728572626E+03 -0.166212869586E+03 -0.164368255008E+03
 -0.162171831422E+03 -0.159603620033E+03 -0.156648015084E+03 -0.153295601861E+03 -0.149545367274E+03
 -0.145407293459E+03 -0.140905259121E+03 -0.136080072852E+03 -0.130992323037E+03 -0.125724555348E+03
 -0.120382103830E+03 -0.115091756912E+03 -0.109997424397E+03 -0.105252209799E+03 -0.101006904057E+03
 -0.973867543911E+02 -0.942986645010E+02 -0.919553010945E+02 -0.899768480435E+02 -0.871386618530E+02
 -0.843927753574E+02 -0.817338466307E+02 -0.791590019753E+02 -0.766654927151E+02 -0.742506846231E+02
 -0.719120454497E+02 -0.696471400513E+02 -0.674536192844E+02 -0.653292163584E+02 -0.632717422731E+02
 -0.612790807484E+02 -0.593491846086E+02 -0.574800735323E+02 -0.556698307241E+02 -0.539166006130E+02
 -0.522185866258E+02 -0.505740491519E+02 -0.489813035930E+02 -0.474387185872E+02 -0.459447142594E+02
 -0.444977606453E+02 -0.430963759158E+02 -0.417391250651E+02 -0.404246182730E+02 -0.391515094849E+02
 -0.379184950622E+02 -0.367243123932E+02 -0.355677386100E+02 -0.344475893307E+02 -0.333627174534E+02
 -0.323120119797E+02 -0.312943968860E+02 -0.303088300290E+02 -0.293543020797E+02 -0.284298354966E+02
 -0.275344835255E+02 -0.266673292314E+02 -0.258274845604E+02 -0.250140894297E+02 -0.242263108470E+02
 -0.234633420560E+02 -0.227244017103E+02 -0.220087330724E+02 -0.213156032384E+02 -0.206443023866E+02
 -0.199941430509E+02 -0.193644594158E+02 -0.187546066351E+02
 pspotential valence only
 -0.968336417389E+02 -0.968344787385E+02 -0.968352892945E+02 -0.968360743449E+02 -0.968368346932E+02
 -0.968375711188E+02 -0.968382843786E+02 -0.968389752026E+02 -0.968396442975E+02 -0.968402923489E+02
 -0.968409200242E+02 -0.968415279684E+02 -0.968421168014E+02 -0.968426871299E+02 -0.968432395369E+02
 -0.968437745954E+02 -0.968442928482E+02 -0.968447948282E+02 -0.968452810556E+02 -0.968457520270E+02
 -0.968462082275E+02 -0.968466501279E+02 -0.968470781768E+02 -0.968474928235E+02 -0.968478944884E+02
 -0.968482835877E+02 -0.968486605274E+02 -0.968490256886E+02 -0.968493794522E+02 -0.968497221839E+02
 -0.968500542383E+02 -0.968503759603E+02 -0.968506876824E+02 -0.968509897281E+02 -0.968512824110E+02
 -0.968515660381E+02 -0.968518409040E+02 -0.968521072943E+02 -0.968523654908E+02 -0.968526157611E+02
 -0.968528583723E+02 -0.968530935781E+02 -0.968533216257E+02 -0.968535427602E+02 -0.968537572177E+02
 -0.968539652237E+02 -0.968541670029E+02 -0.968543627740E+02 -0.968545527477E+02 -0.968547371309E+02
 -0.968549161267E+02 -0.968550899318E+02 -0.968552587409E+02 -0.968554227377E+02 -0.968555821135E+02
 -0.968557370465E+02 -0.968558877151E+02 -0.968560342930E+02 -0.968561769549E+02 -0.968563158712E+02
 -0.968564512031E+02 -0.968565831223E+02 -0.968567117894E+02 -0.968568373657E+02 -0.968569600161E+02
 -0.968570798963E+02 -0.968571971676E+02 -0.968573119889E+02 -0.968574245196E+02 -0.968575349203E+02
 -0.968576433509E+02 -0.968577499713E+02 -0.968578549459E+02 -0.968579584420E+02 -0.968580606237E+02
 -0.968581616606E+02 -0.968582617308E+02 -0.968583610073E+02 -0.968584596681E+02 -0.968585579007E+02
 -0.968586558979E+02 -0.968587538559E+02 -0.968588519722E+02 -0.968589504629E+02 -0.968590495410E+02
 -0.968591494326E+02 -0.968592503721E+02 -0.968593526033E+02 -0.968594563829E+02 -0.968595619719E+02
 -0.968596696542E+02 -0.968597797199E+02 -0.968598924738E+02 -0.968600082375E+02 -0.968601273551E+02
 -0.968602501767E+02 -0.968603770818E+02 -0.968605084642E+02 -0.968606447450E+02 -0.968607863621E+02
 -0.968609337898E+02 -0.968610875199E+02 -0.968612480763E+02 -0.968614160131E+02 -0.968615919214E+02
 -0.968617764232E+02 -0.968619701809E+02 -0.968621738980E+02 -0.968623883202E+02 -0.968626142399E+02
 -0.968628524982E+02 -0.968631039918E+02 -0.968633696690E+02 -0.968636505406E+02 -0.968639476825E+02
 -0.968642622387E+02 -0.968645954211E+02 -0.968649485279E+02 -0.968653229335E+02 -0.968657201022E+02
 -0.968661415930E+02 -0.968665890627E+02 -0.968670642797E+02 -0.968675691207E+02 -0.968681055873E+02
 -0.968686758072E+02 -0.968692820453E+02 -0.968699267165E+02 -0.968706123899E+02 -0.968713417967E+02
 -0.968721178485E+02 -0.968729436423E+02 -0.968738224734E+02 -0.968747578561E+02 -0.968757535229E+02
 -0.968768134490E+02 -0.968779418660E+02 -0.968791432749E+02 -0.968804224674E+02 -0.968817845373E+02
 -0.968832349093E+02 -0.968847793495E+02 -0.968864239929E+02 -0.968881753590E+02 -0.968900403870E+02
 -0.968920264486E+02 -0.968941413836E+02 -0.968963935168E+02 -0.968987916998E+02 -0.969013453366E+02
 -0.969040644075E+02 -0.969069595171E+02 -0.969100419194E+02 -0.969133235533E+02 -0.969168170924E+02
 -0.969205359731E+02 -0.969244944385E+02 -0.969287075859E+02 -0.969331914120E+02 -0.969379628466E+02
 -0.969430398185E+02 -0.969484412885E+02 -0.969541873006E+02 -0.969602990425E+02 -0.969667988869E+02
 -0.969737104390E+02 -0.969810586022E+02 -0.969888696120E+02 -0.969971710958E+02 -0.970059921147E+02
 -0.970153632053E+02 -0.970253164375E+02 -0.970358854318E+02 -0.970471054010E+02 -0.970590131865E+02
 -0.970716472557E+02 -0.970850477347E+02 -0.970992563868E+02 -0.971143166119E+02 -0.971302734163E+02
 -0.971471733620E+02 -0.971650645059E+02 -0.971839963093E+02 -0.972040195295E+02 -0.972251860678E+02
 -0.972475488098E+02 -0.972711614005E+02 -0.972960780026E+02 -0.973223529981E+02 -0.973500406421E+02
 -0.973791946674E+02 -0.974098678300E+02 -0.974421113825E+02 -0.974759744967E+02 -0.975115036004E+02
 -0.975487416367E+02 -0.975877272673E+02 -0.976284939562E+02 -0.976710690032E+02 -0.977154724800E+02
 -0.977617160705E+02 -0.978098018498E+02 -0.978597209781E+02 -0.979114523177E+02 -0.979649610043E+02
 -0.980201969596E+02 -0.980770933773E+02 -0.981355651937E+02 -0.981955075876E+02 -0.982567944892E+02
 -0.983192771937E+02 -0.983827830614E+02 -0.984471143719E+02 -0.985120473630E+02 -0.985773315113E+02
 -0.986426890797E+02 -0.987078150058E+02 -0.987723771497E+02 -0.988360169622E+02 -0.988983506062E+02
 -0.989589705623E+02 -0.990174477519E+02 -0.990733341632E+02 -0.991261660192E+02 -0.991754674480E+02
 -0.992207546371E+02 -0.992615404152E+02 -0.992973392100E+02 -0.993276723069E+02 -0.993520732925E+02
 -0.993700935997E+02 -0.993813080176E+02 -0.993853200469E+02 -0.993817669739E+02 -0.993703245324E+02
 -0.993507110334E+02 -0.993226908584E+02 -0.992860772309E+02 -0.992407341929E+02 -0.991865777602E+02
 -0.991235762405E+02 -0.990517497477E+02 -0.989711689656E+02 -0.988819532580E+02 -0.987842682322E+02
 -0.986783229103E+02 -0.985643666506E+02 -0.984426859913E+02 -0.983136015710E+02 -0.981774652788E+02
 -0.980346577541E+02 -0.978855863345E+02 -0.977306834992E+02 -0.975704058161E+02 -0.974052333404E+02
 -0.972356693653E+02 -0.970622403658E+02 -0.968854959280E+02 -0.967060084124E+02 -0.965243720640E+02
 -0.963412012579E+02 -0.961571275584E+02 -0.959727952706E+02 -0.957888551802E+02 -0.956059562076E+02
 -0.954247347406E+02 -0.952458014658E+02 -0.950697255792E+02 -0.948970163308E+02 -0.947281019388E+02
 -0.945633060080E+02 -0.944028216989E+02 -0.942466840288E+02 -0.940947408490E+02 -0.939466232358E+02
 -0.938017162580E+02 -0.936591313353E+02 -0.935176816686E+02 -0.933758624754E+02 -0.932318379681E+02
 -0.930834371167E+02 -0.929281601863E+02 -0.927631977748E+02 -0.925854635531E+02 -0.923916411149E+02
 -0.921782443050E+02 -0.919416892001E+02 -0.916783747110E+02 -0.913847677506E+02 -0.910574882825E+02
 -0.906933895016E+02 -0.902896290221E+02 -0.898437282307E+02 -0.893536187765E+02 -0.888176772361E+02
 -0.882347509803E+02 -0.876041798210E+02 -0.869258188206E+02 -0.862000674680E+02 -0.854279090736E+02
 -0.846109615261E+02 -0.837515361643E+02 -0.828526948967E+02 -0.819182860438E+02 -0.809529259640E+02
 -0.799618770609E+02 -0.789507587538E+02 -0.779250333929E+02 -0.768892698216E+02 -0.758463496529E+02
 -0.747878902489E+02 -0.735165639179E+02 -0.721844961121E+02 -0.708226883806E+02 -0.694831594092E+02
 -0.681263085454E+02 -0.667539894716E+02 -0.653703115747E+02 -0.639792032775E+02 -0.625842991422E+02
 -0.611888339167E+02 -0.597955512304E+02 -0.584066454628E+02 -0.570237469039E+02 -0.556479673543E+02
 -0.542800130921E+02 -0.529203425580E+02 -0.515693762815E+02 -0.502277008362E+02 -0.488962510937E+02
 -0.475764377390E+02 -0.462702039261E+02 -0.449800061405E+02 -0.437087243646E+02 -0.424595132839E+02
 -0.412356100961E+02 -0.400401171716E+02 -0.388757807337E+02 -0.377447896652E+02 -0.366486198090E+02
 -0.355879460719E+02 -0.345626357534E+02 -0.335718228532E+02 -0.326140483803E+02 -0.316874406572E+02
 -0.307899056379E+02 -0.299193007058E+02 -0.290735739470E+02 -0.282508609860E+02 -0.274495401500E+02
 -0.266682524243E+02 -0.259058952240E+02 -0.251615991334E+02 -0.244346954505E+02 -0.237246804574E+02
 -0.230311804244E+02 -0.223539197297E+02 -0.216926932655E+02 -0.210473434667E+02 -0.204177417952E+02
 -0.198037742349E+02 -0.192053302407E+02 -0.186222945698E+02
 core charge-density (pseudized)
  0.109667207662E-07  0.116915376419E-07  0.124642594027E-07  0.132880521973E-07  0.141662914326E-07
  0.151025756044E-07  0.161007410416E-07  0.171648776253E-07  0.182993455466E-07  0.195087931719E-07
  0.207981760896E-07  0.221727774146E-07  0.236382294353E-07  0.252005366919E-07  0.268661005786E-07
  0.286417455734E-07  0.305347472001E-07  0.325528618392E-07  0.347043585091E-07  0.369980527473E-07
  0.394433427311E-07  0.420502477858E-07  0.448294494378E-07  0.477923351809E-07  0.509510451356E-07
  0.543185217919E-07  0.579085630396E-07  0.617358787039E-07  0.658161508172E-07  0.701660978748E-07
  0.748035433369E-07  0.797474886585E-07  0.850181911457E-07  0.906372469578E-07  0.966276795956E-07
  0.103014034237E-06  0.109822478310E-06  0.117080908707E-06  0.124819066093E-06  0.133068656766E-06
  0.141863482563E-06  0.151239579367E-06  0.161235364755E-06  0.171891795414E-06  0.183252534951E-06
  0.195364132804E-06  0.208276214971E-06  0.222041687349E-06  0.236716952506E-06  0.252362140786E-06
  0.269041356688E-06  0.286822941522E-06  0.305779753433E-06  0.325989465927E-06  0.347534886128E-06
  0.370504294072E-06  0.394991804421E-06  0.421097752085E-06  0.448929103334E-06  0.478599894079E-06
  0.510231697115E-06  0.543954120250E-06  0.579905337358E-06  0.618232654524E-06  0.659093113612E-06
  0.702654135718E-06  0.749094207158E-06  0.798603610782E-06  0.851385205635E-06  0.907655258135E-06
  0.967644328193E-06  0.103159821389E-05  0.109977895860E-05  0.117246592466E-05  0.124995693800E-05
  0.133256950845E-05  0.142064213067E-05  0.151453567103E-05  0.161463484626E-05  0.172134979966E-05
  0.183511778165E-05  0.195640494126E-05  0.208570823607E-05  0.222355746839E-05  0.237051745600E-05
  0.252719034630E-05  0.269421808351E-05  0.287228503880E-05  0.306212081432E-05  0.326450323255E-05
  0.348026152312E-05  0.371027972036E-05  0.395550028528E-05  0.421692796699E-05  0.449563391926E-05
  0.479276008912E-05  0.510952389557E-05  0.544722321734E-05  0.580724171040E-05  0.619105447680E-05
  0.660023410812E-05  0.703645712834E-05  0.750151086243E-05  0.799730075882E-05  0.852585819580E-05
  0.908934880371E-05  0.969008133706E-05  0.103305171330E-04  0.110132801945E-04  0.117411679404E-04
  0.125171626650E-04  0.133444437552E-04  0.142264007151E-04  0.151666470511E-04  0.161690350735E-04
  0.172376716778E-04  0.183769351665E-04  0.195914931844E-04  0.208863218368E-04  0.222667260725E-04
  0.237383614116E-04  0.253072571100E-04  0.269798408535E-04  0.287629650826E-04  0.306639350570E-04
  0.326905387730E-04  0.348510788568E-04  0.371544065650E-04  0.396099580291E-04  0.422277928949E-04
  0.450186355117E-04  0.479939188428E-04  0.511658312737E-04  0.545473665118E-04  0.581523767788E-04
  0.619956295156E-04  0.660928678294E-04  0.704608749294E-04  0.751175428163E-04  0.800819455025E-04
  0.853744170646E-04  0.910166348443E-04  0.970317081374E-04  0.103444272732E-03  0.110280591682E-03
  0.117568662723E-03  0.125338332772E-03  0.133621419970E-03  0.142451843772E-03  0.151865763608E-03
  0.161901726671E-03  0.172600825449E-03  0.184006865622E-03  0.196166545010E-03  0.209129644310E-03
  0.222949230363E-03  0.237681872807E-03  0.253387874966E-03  0.270131519915E-03  0.287981332719E-03
  0.307010359885E-03  0.327296467169E-03  0.348922656922E-03  0.371977406246E-03  0.396555027328E-03
  0.422756051375E-03  0.450687637689E-03  0.480464009521E-03  0.512206918421E-03  0.546046138936E-03
  0.582119995614E-03  0.620575924397E-03  0.661571070606E-03  0.705272925881E-03  0.751860006567E-03
  0.801522576188E-03  0.854463414837E-03  0.910898638458E-03  0.971058571187E-03  0.103518867412E-02
  0.110355053405E-02  0.117642291598E-02  0.125410288337E-02  0.133690699034E-02  0.142517255043E-02
  0.151925898640E-02  0.161954926641E-02  0.172645143150E-02  0.184040022030E-02  0.196185879660E-02
  0.209132058606E-02  0.222931122869E-02  0.237639065380E-02  0.253315528478E-02  0.270024038120E-02
  0.287832252622E-02  0.306812226757E-02  0.327040692091E-02  0.348599354444E-02  0.371575209437E-02
  0.396060877102E-02  0.422154956564E-02  0.449962401853E-02  0.479594919931E-02  0.511171392044E-02
  0.544818319539E-02  0.580670295303E-02  0.618870502010E-02  0.659571238347E-02  0.702934474415E-02
  0.749132437472E-02  0.798348229169E-02  0.850776475398E-02  0.906624009798E-02  0.966110591921E-02
  0.102946966092E-01  0.109694912551E-01  0.116881219088E-01  0.124533822278E-01  0.132682364913E-01
  0.141358289894E-01  0.150594937799E-01  0.160427648054E-01  0.170893863548E-01  0.182033238520E-01
  0.193887749433E-01  0.206501808504E-01  0.219922379459E-01  0.234199094972E-01  0.249384375125E-01
  0.265533546096E-01  0.282704958112E-01  0.300960101530E-01  0.320363719680E-01  0.340983916902E-01
  0.362892259903E-01  0.386163870276E-01  0.410877505675E-01  0.437115626742E-01  0.464964446473E-01
  0.494513958188E-01  0.525857937741E-01  0.559093915030E-01  0.594323109124E-01  0.631650320664E-01
  0.671183774310E-01  0.713034903154E-01  0.757318066003E-01  0.804150187413E-01  0.853650309164E-01
  0.905939040682E-01  0.961137894561E-01  0.101936849199E+00  0.108075162148E+00  0.114540613267E+00
  0.121344764581E+00  0.128498705563E+00  0.136012880729E+00  0.143896892058E+00  0.152159273756E+00
  0.160807236798E+00  0.169846380651E+00  0.179280369567E+00  0.189110570967E+00  0.199335653552E+00
  0.209951143113E+00  0.220948934406E+00  0.232316758093E+00  0.244037602533E+00  0.256089091303E+00
  0.268442818696E+00  0.281063647172E+00  0.293908972892E+00  0.306927968088E+00  0.320060812189E+00
  0.333237927410E+00  0.346379238920E+00  0.359393484896E+00  0.372177607636E+00  0.384616263556E+00
  0.396581497286E+00  0.407932633014E+00  0.418516444734E+00  0.428167675655E+00  0.436709985490E+00
  0.443957412024E+00  0.449716439552E+00  0.453788770402E+00  0.455974895658E+00  0.456078555581E+00
  0.453912167267E+00  0.449303274299E+00  0.442102037817E+00  0.432189737454E+00  0.419488180597E+00
  0.403969826018E+00  0.385668309922E+00  0.364688916396E+00  0.341218358921E+00  0.315533036092E+00
  0.288004697338E+00  0.259102212385E+00  0.229387897153E+00  0.199506632871E+00  0.170165859290E+00
  0.142104474467E+00  0.116048794543E+00  0.926540938838E-01  0.724309492112E-01  0.556567506287E-01
  0.422743915352E-01  0.318344385616E-01  0.237647777018E-01  0.175810532531E-01  0.128849579580E-01
  0.935180535231E-02  0.671931346473E-02  0.477759834740E-02  0.336034562752E-02  0.233710624107E-02
  0.160664685406E-02  0.109127479230E-02  0.732050550852E-03  0.484797426387E-03  0.316817002119E-03
  0.204220734648E-03  0.129791408836E-03  0.812933932976E-04  0.501570868632E-04  0.304703052850E-04
  0.182172339645E-04  0.107136033722E-04  0.619460910697E-05  0.351953456978E-05  0.196384056198E-05
  0.107552752749E-05  0.577780856145E-06  0.304263699821E-06  0.156959900003E-06  0.792633833704E-07
  0.391546881080E-07  0.189057175082E-07  0.891582646639E-08  0.410336831971E-08  0.184150280840E-08
  0.805176746122E-09  0.342706563161E-09  0.141867392640E-09  0.570662154596E-10  0.222848311907E-10
  0.844034643472E-11  0.309747119588E-11  0.110030613443E-11  0.377945450387E-12  0.125397878572E-12
  0.401437701100E-13  0.123856537633E-13  0.367859666710E-14  0.105046243529E-14  0.288050709778E-15
  0.757502373141E-16  0.190784523813E-16  0.459561980435E-17
 pseudo wavefunction
  0.184091357752E-03  0.190077549409E-03  0.196258397082E-03  0.202640230496E-03  0.209229585207E-03
  0.216033209288E-03  0.223058070245E-03  0.230311362149E-03  0.237800513002E-03  0.245533192349E-03
  0.253517319128E-03  0.261761069781E-03  0.270272886628E-03  0.279061486512E-03  0.288135869725E-03
  0.297505329227E-03  0.307179460160E-03  0.317168169678E-03  0.327481687091E-03  0.338130574337E-03
  0.349125736806E-03  0.360478434500E-03  0.372200293572E-03  0.384303318225E-03  0.396799903008E-03
  0.409702845513E-03  0.423025359475E-03  0.436781088305E-03  0.450984119066E-03  0.465648996895E-03
  0.480790739900E-03  0.496424854542E-03  0.512567351509E-03  0.529234762119E-03  0.546444155246E-03
  0.564213154797E-03  0.582559957769E-03  0.601503352874E-03  0.621062739787E-03  0.641258149012E-03
  0.662110262391E-03  0.683640434288E-03  0.705870713454E-03  0.728823865612E-03  0.752523396763E-03
  0.776993577266E-03  0.802259466686E-03  0.828346939462E-03  0.855282711400E-03  0.883094367037E-03
  0.911810387883E-03  0.941460181593E-03  0.972074112083E-03  0.100368353062E-02  0.103632080793E-02
  0.107001936735E-02  0.110481371905E-02  0.114073949539E-02  0.117783348738E-02  0.121613368238E-02
  0.125567930300E-02  0.129651084726E-02  0.133867013005E-02  0.138220032597E-02  0.142714601354E-02
  0.147355322084E-02  0.152146947267E-02  0.157094383916E-02  0.162202698609E-02  0.167477122673E-02
  0.172923057543E-02  0.178546080291E-02  0.184351949338E-02  0.190346610354E-02  0.196536202340E-02
  0.202927063920E-02  0.209525739828E-02  0.216338987615E-02  0.223373784560E-02  0.230637334824E-02
  0.238137076819E-02  0.245880690832E-02  0.253876106883E-02  0.262131512847E-02  0.270655362842E-02
  0.279456385877E-02  0.288543594799E-02  0.297926295514E-02  0.307614096521E-02  0.317616918745E-02
  0.327945005699E-02  0.338608933969E-02  0.349619624046E-02  0.360988351500E-02  0.372726758535E-02
  0.384846865897E-02  0.397361085188E-02  0.410282231569E-02  0.423623536880E-02  0.437398663188E-02
  0.451621716766E-02  0.466307262543E-02  0.481470339002E-02  0.497126473584E-02  0.513291698572E-02
  0.529982567507E-02  0.547216172129E-02  0.565010159867E-02  0.583382751903E-02  0.602352761816E-02
  0.621939614838E-02  0.642163367728E-02  0.663044729296E-02  0.684605081591E-02  0.706866501777E-02
  0.729851784721E-02  0.753584466305E-02  0.778088847507E-02  0.803390019256E-02  0.829513888089E-02
  0.856487202645E-02  0.884337581022E-02  0.913093539007E-02  0.942784519234E-02  0.973440921279E-02
  0.100509413273E-01  0.103777656126E-01  0.107152166777E-01  0.110636400051E-01  0.114233923045E-01
  0.117948418766E-01  0.121783689892E-01  0.125743662658E-01  0.129832390860E-01  0.134054059994E-01
  0.138412991526E-01  0.142913647298E-01  0.147560634084E-01  0.152358708280E-01  0.157312780754E-01
  0.162427921852E-01  0.167709366559E-01  0.173162519830E-01  0.178792962092E-01  0.184606454920E-01
  0.190608946897E-01  0.196806579658E-01  0.203205694133E-01  0.209812836983E-01  0.216634767245E-01
  0.223678463184E-01  0.230951129368E-01  0.238460203968E-01  0.246213366279E-01  0.254218544493E-01
  0.262483923705E-01  0.271017954178E-01  0.279829359869E-01  0.288927147213E-01  0.298320614192E-01
  0.308019359681E-01  0.318033293086E-01  0.328372644279E-01  0.339047973845E-01  0.350070183635E-01
  0.361450527653E-01  0.373200623269E-01  0.385332462774E-01  0.397858425284E-01  0.410791289005E-01
  0.424144243860E-01  0.437930904499E-01  0.452165323685E-01  0.466862006080E-01  0.482035922429E-01
  0.497702524154E-01  0.513877758368E-01  0.530578083315E-01  0.547820484238E-01  0.565622489701E-01
  0.584002188339E-01  0.602978246084E-01  0.622569923833E-01  0.642797095587E-01  0.663680267063E-01
  0.685240594767E-01  0.707499905552E-01  0.730480716639E-01  0.754206256119E-01  0.778700483922E-01
  0.803988113256E-01  0.830094632500E-01  0.857046327552E-01  0.884870304620E-01  0.913594513429E-01
  0.943247770846E-01  0.973859784885E-01  0.100546117907E+00  0.103808351714E+00  0.107175932802E+00
  0.110652213112E+00  0.114240646169E+00  0.117944789655E+00  0.121768307965E+00  0.125714974789E+00
  0.129788675671E+00  0.133993410560E+00  0.138333296332E+00  0.142812569281E+00  0.147435587552E+00
  0.152206833512E+00  0.157130916043E+00  0.162212572728E+00  0.167456671930E+00  0.172868214712E+00
  0.178452336603E+00  0.184214309161E+00  0.190159541313E+00  0.196293580429E+00  0.202622113103E+00
  0.209150965586E+00  0.215886103835E+00  0.222833633119E+00  0.229999797133E+00  0.237390976546E+00
  0.245013686927E+00  0.252874575961E+00  0.260980419886E+00  0.269338119043E+00  0.277954692449E+00
  0.286837271284E+00  0.295993091166E+00  0.305429483082E+00  0.315153862840E+00  0.325173718870E+00
  0.335496598222E+00  0.346130090553E+00  0.357081809918E+00  0.368359374134E+00  0.379970381484E+00
  0.391922384496E+00  0.404222860526E+00  0.416879178836E+00  0.429898563839E+00  0.443288054174E+00
  0.457054457227E+00  0.471204298693E+00  0.485743766763E+00  0.500678650480E+00  0.516014271765E+00
  0.531755410635E+00  0.547906223056E+00  0.564470150881E+00  0.581449823300E+00  0.598846949199E+00
  0.616662199821E+00  0.634895081110E+00  0.653543795129E+00  0.672605089934E+00  0.692074097324E+00
  0.711944157923E+00  0.732206633091E+00  0.752850703253E+00  0.773863152317E+00  0.795228138005E+00
  0.816926948055E+00  0.838937742495E+00  0.861235282416E+00  0.883790645980E+00  0.906570932796E+00
  0.929538958201E+00  0.952652939522E+00  0.975866177025E+00  0.999126732910E+00  0.102237711258E+01
  0.104555395333E+01  0.106858772657E+01  0.109140246110E+01  0.111391549591E+01  0.113603727283E+01
  0.115767118051E+01  0.117871346317E+01  0.119905320921E+01  0.121857243633E+01  0.123714629201E+01
  0.125464338934E+01  0.127092630006E+01  0.128585222763E+01  0.129927388374E+01  0.131104059170E+01
  0.132099963929E+01  0.132899790090E+01  0.133488374568E+01  0.133850924178E+01  0.133973265894E+01
  0.133842126018E+01  0.133445435834E+01  0.132772659449E+01  0.131815137156E+01  0.130566434814E+01
  0.129022686332E+01  0.127182912462E+01  0.125049294704E+01  0.122627378309E+01  0.119926173397E+01
  0.116958118243E+01  0.113738864287E+01  0.110286838982E+01  0.106622540906E+01  0.102767522614E+01
  0.987430216962E+00  0.945682108599E+00  0.902580551239E+00  0.858206362221E+00  0.812708903216E+00
  0.766464522422E+00  0.719867544284E+00  0.673292561867E+00  0.627090921363E+00  0.581587742446E+00
  0.537079467151E+00  0.493831921659E+00  0.452078872653E+00  0.412021063350E+00  0.373825722257E+00
  0.337626547190E+00  0.303524175195E+00  0.271587148760E+00  0.241853379981E+00  0.214332094796E+00
  0.189006212961E+00  0.165835091120E+00  0.144757532178E+00  0.125694948784E+00  0.108554564383E+00
  0.932325419996E-01  0.796169467329E-01  0.675904700258E-01  0.570328689793E-01  0.478230991752E-01
  0.398411417494E-01  0.329695424059E-01  0.270946901453E-01  0.221078664477E-01  0.179060926995E-01
  0.143927971500E-01  0.114783153664E-01  0.908023238080E-02  0.712357182376E-02  0.554083754629E-02
  0.427191587243E-02  0.326385060885E-02  0.247050711621E-02  0.185214522030E-02  0.137492295400E-02
  0.101035386092E-02  0.734739913145E-03  0.528600229000E-03  0.376113041046E-03  0.264585099027E-03
  0.183959215937E-03  0.126367244587E-03  0.857326139912E-04
 ae wavefunction
 -0.272091321235E-02 -0.280609865397E-02 -0.289394026299E-02 -0.298452017625E-02 -0.307792302643E-02
 -0.317423601521E-02 -0.327354898826E-02 -0.337595451226E-02 -0.348154795396E-02 -0.359042756127E-02
 -0.370269454652E-02 -0.381845317179E-02 -0.393781083646E-02 -0.406087816692E-02 -0.418776910863E-02
 -0.431860102021E-02 -0.445349477018E-02 -0.459257483573E-02 -0.473596940397E-02 -0.488381047562E-02
 -0.503623397088E-02 -0.519337983814E-02 -0.535539216463E-02 -0.552241928994E-02 -0.569461392183E-02
 -0.587213325450E-02 -0.605513908950E-02 -0.624379795902E-02 -0.643828125163E-02 -0.663876534065E-02
 -0.684543171488E-02 -0.705846711181E-02 -0.727806365329E-02 -0.750441898352E-02 -0.773773640948E-02
 -0.797822504358E-02 -0.822609994864E-02 -0.848158228495E-02 -0.874489945952E-02 -0.901628527727E-02
 -0.929598009413E-02 -0.958423097194E-02 -0.988129183497E-02 -0.101874236280E-01 -0.105028944755E-01
 -0.108279798425E-01 -0.111629626957E-01 -0.115081336657E-01 -0.118637912099E-01 -0.122302417748E-01
 -0.126077999595E-01 -0.129967886771E-01 -0.133975393169E-01 -0.138103919045E-01 -0.142356952606E-01
 -0.146738071575E-01 -0.151250944735E-01 -0.155899333438E-01 -0.160687093083E-01 -0.165618174539E-01
 -0.170696625536E-01 -0.175926591984E-01 -0.181312319233E-01 -0.186858153261E-01 -0.192568541781E-01
 -0.198448035248E-01 -0.204501287773E-01 -0.210733057916E-01 -0.217148209360E-01 -0.223751711443E-01
 -0.230548639533E-01 -0.237544175248E-01 -0.244743606482E-01 -0.252152327234E-01 -0.259775837229E-01
 -0.267619741288E-01 -0.275689748455E-01 -0.283991670834E-01 -0.292531422136E-01 -0.301315015894E-01
 -0.310348563325E-01 -0.319638270820E-01 -0.329190437017E-01 -0.339011449445E-01 -0.349107780687E-01
 -0.359485984038E-01 -0.370152688627E-01 -0.381114593944E-01 -0.392378463755E-01 -0.403951119341E-01
 -0.415839432032E-01 -0.428050314975E-01 -0.440590714089E-01 -0.453467598161E-01 -0.466687948016E-01
 -0.480258744703E-01 -0.494186956647E-01 -0.508479525685E-01 -0.523143351932E-01 -0.538185277392E-01
 -0.553612068261E-01 -0.569430395812E-01 -0.585646815813E-01 -0.602267746377E-01 -0.619299444155E-01
 -0.636747978782E-01 -0.654619205496E-01 -0.672918735803E-01 -0.691651906117E-01 -0.710823744248E-01
 -0.730438933643E-01 -0.750501775264E-01 -0.771016146991E-01 -0.791985460439E-01 -0.813412615056E-01
 -0.835299949408E-01 -0.857649189499E-01 -0.880461394028E-01 -0.903736896453E-01 -0.927475243730E-01
 -0.951675131620E-01 -0.976334336432E-01 -0.100144964309E+00 -0.102701676942E+00 -0.105303028652E+00
 -0.107948353511E+00 -0.110636853786E+00 -0.113367590741E+00 -0.116139475025E+00 -0.118951256618E+00
 -0.121801514341E+00 -0.124688644933E+00 -0.127610851670E+00 -0.130566132561E+00 -0.133552268088E+00
 -0.136566808529E+00 -0.139607060848E+00 -0.142670075185E+00 -0.145752630940E+00 -0.148851222501E+00
 -0.151962044617E+00 -0.155080977461E+00 -0.158203571413E+00 -0.161325031620E+00 -0.164440202362E+00
 -0.167543551307E+00 -0.170629153705E+00 -0.173690676600E+00 -0.176721363152E+00 -0.179714017162E+00
 -0.182660987905E+00 -0.185554155388E+00 -0.188384916179E+00 -0.191144169935E+00 -0.193822306806E+00
 -0.196409195875E+00 -0.198894174842E+00 -0.201266041145E+00 -0.203513044760E+00 -0.205622882910E+00
 -0.207582696960E+00 -0.209379071768E+00 -0.210998037806E+00 -0.212425076365E+00 -0.213645128197E+00
 -0.214642605944E+00 -0.215401410751E+00 -0.215904953455E+00 -0.216136180779E+00 -0.216077606958E+00
 -0.215711351269E+00 -0.215019181915E+00 -0.213982566745E+00 -0.212582731316E+00 -0.210800724759E+00
 -0.208617493967E+00 -0.206013966581E+00 -0.202971143254E+00 -0.199470199652E+00 -0.195492598643E+00
 -0.191020213054E+00 -0.186035459394E+00 -0.180521442819E+00 -0.174462113629E+00 -0.167842435439E+00
 -0.160648565141E+00 -0.152868044627E+00 -0.144490004159E+00 -0.135505377119E+00 -0.125907125733E+00
 -0.115690477189E+00 -0.104853169390E+00 -0.933957053645E-01 -0.813216151292E-01 -0.686377235475E-01
 -0.553544224588E-01 -0.414859450537E-01 -0.270506401833E-01 -0.120712439921E-01  0.342485400447E-02
  0.194053535065E-01  0.358327979689E-01  0.526643445093E-01  0.698515527099E-01  0.873401960005E-01
  0.105070099590E+00  0.122975009398E+00  0.140982497142E+00  0.159013907547E+00  0.176984354526E+00
  0.194802773817E+00  0.212372039952E+00  0.229589155340E+00  0.246345518766E+00  0.262527279606E+00
  0.278015782962E+00  0.292688109777E+00  0.306417715127E+00  0.319075167234E+00  0.330528989116E+00
  0.340646604019E+00  0.349295384689E+00  0.356343805271E+00  0.361662693099E+00  0.365126576050E+00
  0.366615119403E+00  0.366014644310E+00  0.363219718024E+00  0.358134803915E+00  0.350675957051E+00
  0.340772548801E+00  0.328369001422E+00  0.313426511191E+00  0.295924736127E+00  0.275863422066E+00
  0.253263938674E+00  0.228170695162E+00  0.200652404053E+00  0.170803160446E+00  0.138743303876E+00
  0.104620030081E+00  0.686077206784E-01  0.309079598939E-01 -0.825079071934E-02 -0.486138853671E-01
 -0.899015742299E-01 -0.131810477943E+00 -0.174015443763E+00 -0.216171745825E+00 -0.257917571568E+00
 -0.298876738332E+00 -0.338661625022E+00 -0.376876382296E+00 -0.413120561007E+00 -0.446993295194E+00
 -0.478098039009E+00 -0.506047661528E+00 -0.530469615470E+00 -0.551010973270E+00 -0.567343253579E+00
 -0.579167028270E+00 -0.586216292858E+00 -0.588262546586E+00 -0.585118499929E+00 -0.576641318587E+00
 -0.562735324171E+00 -0.543354093175E+00 -0.518501920711E+00 -0.488234636405E+00 -0.452659777133E+00
 -0.411936132351E+00 -0.366272685828E+00 -0.315926981845E+00 -0.261202946132E+00 -0.202448192020E+00
 -0.140050841747E+00 -0.744358920626E-01 -0.606115343394E-02  0.645872059952E-01  0.136999475628E+00
  0.210647533331E+00  0.284990238356E+00  0.359479022206E+00  0.433563605338E+00  0.506697766782E+00
  0.578345102663E+00  0.647984727155E+00  0.715116889289E+00  0.779268472691E+00  0.839998286515E+00
  0.896901906128E+00  0.949615599037E+00  0.997818700167E+00  0.104123393762E+01  0.107962587716E+01
  0.111279867511E+01  0.114059496187E+01  0.116289715779E+01  0.117963102852E+01  0.119076997025E+01
  0.119633837754E+01  0.119641316492E+01  0.119112340909E+01  0.118064848259E+01  0.116521508668E+01
  0.114509346406E+01  0.112059295577E+01  0.109205701113E+01  0.105985775638E+01  0.102439023262E+01
  0.986066442057E+00  0.945309337054E+00  0.902546888766E+00  0.858206362221E+00  0.812708903216E+00
  0.766464522422E+00  0.719867544284E+00  0.673292561867E+00  0.627090921363E+00  0.581587742446E+00
  0.537079467151E+00  0.493831921659E+00  0.452078872653E+00  0.412021063350E+00  0.373825722257E+00
  0.337626547190E+00  0.303524175195E+00  0.271587148760E+00  0.241853379981E+00  0.214332094796E+00
  0.189006212961E+00  0.165835091120E+00  0.144757532178E+00  0.125694948784E+00  0.108554564383E+00
  0.932325419996E-01  0.796169467329E-01  0.675904700258E-01  0.570328689793E-01  0.478230991752E-01
  0.398411417494E-01  0.329695424059E-01  0.270946901453E-01  0.221078664477E-01  0.179060926995E-01
  0.143927971500E-01  0.114783153664E-01  0.908023238080E-02  0.712357182376E-02  0.554083754629E-02
  0.427191587243E-02  0.326385060885E-02  0.247050711621E-02  0.185214522030E-02  0.137492295400E-02
  0.101035386092E-02  0.734739913145E-03  0.528600229000E-03  0.376113041046E-03  0.264585099027E-03
  0.183959215937E-03  0.126367244587E-03  0.857326139912E-04
 pseudo wavefunction
  0.189225356023E-03  0.195378492496E-03  0.201731713613E-03  0.208291525626E-03  0.215064646355E-03
  0.222058012067E-03  0.229278784580E-03  0.236734358593E-03  0.244432369266E-03  0.252380700033E-03
  0.260587490678E-03  0.269061145670E-03  0.277810342772E-03  0.286844041924E-03  0.296171494421E-03
  0.305802252389E-03  0.315746178563E-03  0.326013456389E-03  0.336614600455E-03  0.347560467257E-03
  0.358862266314E-03  0.370531571655E-03  0.382580333662E-03  0.395020891318E-03  0.407865984836E-03
  0.421128768708E-03  0.434822825181E-03  0.448962178156E-03  0.463561307562E-03  0.478635164175E-03
  0.494199184934E-03  0.510269308746E-03  0.526861992814E-03  0.543994229484E-03  0.561683563653E-03
  0.579948110731E-03  0.598806575196E-03  0.618278269749E-03  0.638383135088E-03  0.659141760334E-03
  0.680575404111E-03  0.702706016320E-03  0.725556260618E-03  0.749149537623E-03  0.773510008880E-03
  0.798662621609E-03  0.824633134244E-03  0.851448142819E-03  0.879135108200E-03  0.907722384210E-03
  0.937239246662E-03  0.967715923343E-03  0.999183624965E-03  0.103167457713E-02  0.106522205334E-02
  0.109986040904E-02  0.113562511685E-02  0.117255280284E-02  0.121068128406E-02  0.125004960730E-02
  0.129069808900E-02  0.133266835660E-02  0.137600339116E-02  0.142074757134E-02  0.146694671889E-02
  0.151464814554E-02  0.156390070145E-02  0.161475482528E-02  0.166726259577E-02  0.172147778514E-02
  0.177745591411E-02  0.183525430874E-02  0.189493215921E-02  0.195655058033E-02  0.202017267422E-02
  0.208586359484E-02  0.215369061478E-02  0.222372319410E-02  0.229603305147E-02  0.237069423762E-02
  0.244778321114E-02  0.252737891680E-02  0.260956286639E-02  0.269441922214E-02  0.278203488293E-02
  0.287249957328E-02  0.296590593520E-02  0.306234962305E-02  0.316192940149E-02  0.326474724658E-02
  0.337090845025E-02  0.348052172801E-02  0.359369933035E-02  0.371055715763E-02  0.383121487871E-02
  0.395579605352E-02  0.408442825953E-02  0.421724322235E-02  0.435437695060E-02  0.449596987515E-02
  0.464216699285E-02  0.479311801498E-02  0.494897752051E-02  0.510990511428E-02  0.527606559041E-02
  0.544762910099E-02  0.562477133015E-02  0.580767367398E-02  0.599652342606E-02  0.619151396923E-02
  0.639284497341E-02  0.660072259997E-02  0.681535971265E-02  0.703697609538E-02  0.726579867712E-02
  0.750206176403E-02  0.774600727917E-02  0.799788500995E-02  0.825795286361E-02  0.852647713105E-02
  0.880373275906E-02  0.909000363155E-02  0.938558285979E-02  0.969077308204E-02  0.100058867730E-01
  0.103312465630E-01  0.106671855680E-01  0.110140477298E-01  0.113721881675E-01  0.117419735403E-01
  0.121237824218E-01  0.125180056869E-01  0.129250469107E-01  0.133453227805E-01  0.137792635210E-01
  0.142273133334E-01  0.146899308486E-01  0.151675895945E-01  0.156607784794E-01  0.161700022898E-01
  0.166957822050E-01  0.172386563281E-01  0.177991802335E-01  0.183779275328E-01  0.189754904581E-01
  0.195924804647E-01  0.202295288520E-01  0.208872874057E-01  0.215664290590E-01  0.222676485762E-01
  0.229916632567E-01  0.237392136628E-01  0.245110643694E-01  0.253080047380E-01  0.261308497154E-01
  0.269804406571E-01  0.278576461768E-01  0.287633630225E-01  0.296985169808E-01  0.306640638082E-01
  0.316609901925E-01  0.326903147438E-01  0.337530890161E-01  0.348503985602E-01  0.359833640100E-01
  0.371531422010E-01  0.383609273237E-01  0.396079521118E-01  0.408954890664E-01  0.422248517172E-01
  0.435973959212E-01  0.450145212006E-01  0.464776721198E-01  0.479883397029E-01  0.495480628931E-01
  0.511584300536E-01  0.528210805122E-01  0.545377061496E-01  0.563100530320E-01  0.581399230901E-01
  0.600291758432E-01  0.619797301710E-01  0.639935661323E-01  0.660727268320E-01  0.682193203359E-01
  0.704355216353E-01  0.727235746590E-01  0.750857943361E-01  0.775245687060E-01  0.800423610789E-01
  0.826417122430E-01  0.853252427209E-01  0.880956550719E-01  0.909557362402E-01  0.939083599481E-01
  0.969564891309E-01  0.100103178413E+00  0.103351576620E+00  0.106704929330E+00  0.110166581451E+00
  0.113739979827E+00  0.117428675871E+00  0.121236328207E+00  0.125166705329E+00  0.129223688261E+00
  0.133411273213E+00  0.137733574222E+00  0.142194825769E+00  0.146799385361E+00  0.151551736066E+00
  0.156456488978E+00  0.161518385607E+00  0.166742300167E+00  0.172133241748E+00  0.177696356344E+00
  0.183436928711E+00  0.189360384031E+00  0.195472289348E+00  0.201778354744E+00  0.208284434208E+00
  0.214996526166E+00  0.221920773617E+00  0.229063463828E+00  0.236431027529E+00  0.244030037536E+00
  0.251867206751E+00  0.259949385444E+00  0.268283557742E+00  0.276876837228E+00  0.285736461555E+00
  0.294869785954E+00  0.304284275523E+00  0.313987496155E+00  0.323987103970E+00  0.334290833082E+00
  0.344906481527E+00  0.355841895180E+00  0.367104949430E+00  0.378703528407E+00  0.390645501519E+00
  0.402938697031E+00  0.415590872399E+00  0.428609681068E+00  0.442002635395E+00  0.455777065336E+00
  0.469940072539E+00  0.484498479421E+00  0.499458772799E+00  0.514827041623E+00  0.530608908323E+00
  0.546809453249E+00  0.563433131680E+00  0.580483682834E+00  0.597964030288E+00  0.615876173231E+00
  0.634221067915E+00  0.652998498691E+00  0.672206938030E+00  0.691843394897E+00  0.711903250919E+00
  0.732380083790E+00  0.753265477441E+00  0.774548818557E+00  0.796217079152E+00  0.818254585031E+00
  0.840642770155E+00  0.863359917123E+00  0.886380884281E+00  0.909676820238E+00  0.933214867015E+00
  0.956957853461E+00  0.980863981149E+00  0.100488650557E+01  0.102897341622E+01  0.105306711995E+01
  0.107710413300E+01  0.110101478827E+01  0.112472296539E+01  0.114814585281E+01  0.117119375252E+01
  0.119376993947E+01  0.121577058995E+01  0.123708479439E+01  0.125759467264E+01  0.127717561102E+01
  0.129569664257E+01  0.131302099352E+01  0.132900682011E+01  0.134350816067E+01  0.135637612821E+01
  0.136746036745E+01  0.137661079834E+01  0.138367966413E+01  0.138852389620E+01  0.139100779910E+01
  0.139100604784E+01  0.138840697388E+01  0.138311609638E+01  0.137505983092E+01  0.136418927715E+01
  0.135048395134E+01  0.133395528726E+01  0.131464968129E+01  0.129265080485E+01  0.126808085100E+01
  0.124110032515E+01  0.121190593599E+01  0.118072609733E+01  0.114781352261E+01  0.111343439039E+01
  0.107785359447E+01  0.104131567989E+01  0.100402122523E+01  0.966100037199E+00  0.927753690672E+00
  0.889459321223E+00  0.851728750601E+00  0.000000000000E+00  0.000000000000E+00  0.000000000000E+00
  0.000000000000E+00  0.000000000000E+00  0.000000000000E+00  0.000000000000E+00  0.000000000000E+00
  0.000000000000E+00  0.000000000000E+00  0.000000000000E+00  0.000000000000E+00  0.000000000000E+00
  0.000000000000E+00  0.000000000000E+00  0.000000000000E+00  0.000000000000E+00  0.000000000000E+00
  0.000000000000E+00  0.000000000000E+00  0.000000000000E+00  0.000000000000E+00  0.000000000000E+00
  0.000000000000E+00  0.000000000000E+00  0.000000000000E+00  0.000000000000E+00  0.000000000000E+00
  0.000000000000E+00  0.000000000000E+00  0.000000000000E+00  0.000000000000E+00  0.000000000000E+00
  0.000000000000E+00  0.000000000000E+00  0.000000000000E+00  0.000000000000E+00  0.000000000000E+00
  0.000000000000E+00  0.000000000000E+00  0.000000000000E+00  0.000000000000E+00  0.000000000000E+00
  0.000000000000E+00  0.000000000000E+00  0.000000000000E+00
 ae wavefunction
 -0.281199077576E-02 -0.290002764374E-02 -0.299080958951E-02 -0.308442149928E-02 -0.318095083868E-02
 -0.328048772830E-02 -0.338312502125E-02 -0.348895838270E-02 -0.359808637162E-02 -0.371061052463E-02
 -0.382663544195E-02 -0.394626887566E-02 -0.406962182012E-02 -0.419680860477E-02 -0.432794698919E-02
 -0.446315826038E-02 -0.460256733271E-02 -0.474630285004E-02 -0.489449729033E-02 -0.504728707278E-02
 -0.520481266730E-02 -0.536721870681E-02 -0.553465410161E-02 -0.570727215670E-02 -0.588523069150E-02
 -0.606869216200E-02 -0.625782378580E-02 -0.645279766946E-02 -0.665379093850E-02 -0.686098587005E-02
 -0.707457002796E-02 -0.729473640044E-02 -0.752168354030E-02 -0.775561570756E-02 -0.799674301458E-02
 -0.824528157347E-02 -0.850145364593E-02 -0.876548779525E-02 -0.903761904054E-02 -0.931808901295E-02
 -0.960714611396E-02 -0.990504567543E-02 -0.102120501214E-01 -0.105284291312E-01 -0.108544598047E-01
 -0.111904268274E-01 -0.115366226380E-01 -0.118933475956E-01 -0.122609101480E-01 -0.126396269996E-01
 -0.130298232800E-01 -0.134318327118E-01 -0.138459977768E-01 -0.142726698827E-01 -0.147122095264E-01
 -0.151649864561E-01 -0.156313798310E-01 -0.161117783771E-01 -0.166065805395E-01 -0.171161946304E-01
 -0.176410389720E-01 -0.181815420332E-01 -0.187381425600E-01 -0.193112896980E-01 -0.199014431067E-01
 -0.205090730637E-01 -0.211346605593E-01 -0.217786973787E-01 -0.224416861708E-01 -0.231241405037E-01
 -0.238265849041E-01 -0.245495548786E-01 -0.252935969175E-01 -0.260592684772E-01 -0.268471379400E-01
 -0.276577845502E-01 -0.284917983230E-01 -0.293497799247E-01 -0.302323405227E-01 -0.311401016004E-01
 -0.320736947372E-01 -0.330337613480E-01 -0.340209523820E-01 -0.350359279744E-01 -0.360793570511E-01
 -0.371519168794E-01 -0.382542925640E-01 -0.393871764813E-01 -0.405512676506E-01 -0.417472710355E-01
 -0.429758967724E-01 -0.442378593191E-01 -0.455338765210E-01 -0.468646685869E-01 -0.482309569699E-01
 -0.496334631468E-01 -0.510729072897E-01 -0.525500068236E-01 -0.540654748618E-01 -0.556200185125E-01
 -0.572143370497E-01 -0.588491199378E-01 -0.605250447048E-01 -0.622427746529E-01 -0.640029563980E-01
 -0.658062172293E-01 -0.676531622794E-01 -0.695443714924E-01 -0.714803963833E-01 -0.734617565748E-01
 -0.754889361012E-01 -0.775623794693E-01 -0.796824874628E-01 -0.818496126789E-01 -0.840640547857E-01
 -0.863260554865E-01 -0.886357931797E-01 -0.909933773016E-01 -0.933988423381E-01 -0.958521414943E-01
 -0.983531400090E-01 -0.100901608100E+00 -0.103497213531E+00 -0.106139513787E+00 -0.108827947842E+00
 -0.111561827521E+00 -0.114340328433E+00 -0.117162480469E+00 -0.120027157865E+00 -0.122933068816E+00
 -0.125878744634E+00 -0.128862528456E+00 -0.131882563491E+00 -0.134936780808E+00 -0.138022886680E+00
 -0.141138349475E+00 -0.144280386109E+00 -0.147445948084E+00 -0.150631707110E+00 -0.153834040351E+00
 -0.157049015311E+00 -0.160272374400E+00 -0.163499519205E+00 -0.166725494535E+00 -0.169944972265E+00
 -0.173152235063E+00 -0.176341160058E+00 -0.179505202522E+00 -0.182637379671E+00 -0.185730254670E+00
 -0.188775920957E+00 -0.191765987018E+00 -0.194691561730E+00 -0.197543240449E+00 -0.200311091986E+00
 -0.202984646666E+00 -0.205552885665E+00 -0.208004231834E+00 -0.210326542260E+00 -0.212507102798E+00
 -0.214532624863E+00 -0.216389244758E+00 -0.218062525865E+00 -0.219537464030E+00 -0.220798496486E+00
 -0.221829514704E+00 -0.222613881556E+00 -0.223134453215E+00 -0.223373606221E+00 -0.223313270169E+00
 -0.222934966483E+00 -0.222219853772E+00 -0.221148780242E+00 -0.219702343693E+00 -0.217860959587E+00
 -0.215604937709E+00 -0.212914567923E+00 -0.209770215512E+00 -0.206152426586E+00 -0.202042044007E+00
 -0.197420334243E+00 -0.192269125547E+00 -0.186570957761E+00 -0.180309244020E+00 -0.173468444533E+00
 -0.166034252541E+00 -0.157993792424E+00 -0.149335829849E+00 -0.140050993668E+00 -0.130132009153E+00
 -0.119573941985E+00 -0.108374452174E+00 -0.965340569346E-01 -0.840564012631E-01 -0.709485346980E-01
 -0.572211924957E-01 -0.428890791222E-01 -0.279711516736E-01 -0.124909005268E-01  0.352337575238E-02
  0.200383044587E-01  0.370151851501E-01  0.544097519343E-01  0.721719552810E-01  0.902457671679E-01
  0.108569013662E+00  0.127073239531E+00  0.145683610211E+00  0.164318857304E+00  0.182891274655E+00
  0.201306772774E+00  0.219464999712E+00  0.237259536445E+00  0.254578174292E+00  0.271303280895E+00
  0.287312260110E+00  0.302478110021E+00  0.316670082352E+00  0.329754445926E+00  0.341595356116E+00
  0.352055831489E+00  0.360998837682E+00  0.368288477251E+00  0.373791282661E+00  0.377377607939E+00
  0.378923112718E+00  0.378310330518E+00  0.375430311063E+00  0.370184324272E+00  0.362485611223E+00
  0.352261164985E+00  0.339453521665E+00  0.324022539498E+00  0.305947141257E+00  0.285226992859E+00
  0.261884088839E+00  0.235964213459E+00  0.207538244768E+00  0.176703268011E+00  0.143583464412E+00
  0.108330741608E+00  0.711250727109E-01  0.321745121592E-01 -0.828514160428E-02 -0.499910632226E-01
 -0.926545171881E-01 -0.135962381589E+00 -0.179579065779E+00 -0.223148783047E+00 -0.266298118364E+00
 -0.308638833198E+00 -0.349770891664E+00 -0.389285773349E+00 -0.426770217080E+00 -0.461810536378E+00
 -0.493997506013E+00 -0.522931617157E+00 -0.548228407738E+00 -0.569523654452E+00 -0.586478346883E+00
 -0.598783433413E+00 -0.606164321260E+00 -0.608385075155E+00 -0.605252229715E+00 -0.596618121610E+00
 -0.582383659123E+00 -0.562500468818E+00 -0.536972384730E+00 -0.505856267200E+00 -0.469262156279E+00
 -0.427352776210E+00 -0.380342415758E+00 -0.328495213681E+00 -0.272122880908E+00 -0.211581891256E+00
 -0.147270171989E+00 -0.796233247209E-01 -0.911040731929E-02  0.637706906261E-01  0.138498241190E+00
  0.214531995142E+00  0.291318766948E+00  0.368298221430E+00  0.444908787510E+00  0.520593623674E+00
  0.594806569086E+00  0.667018032477E+00  0.736720791712E+00  0.803435670843E+00  0.866717001153E+00
  0.926157618418E+00  0.981392917856E+00  0.103210330930E+01  0.107801455375E+01  0.111889614957E+01
  0.115455899429E+01  0.118485420980E+01  0.120967449055E+01  0.122895779312E+01  0.124269181884E+01
  0.125091759047E+01  0.125373116203E+01  0.125128342927E+01  0.124377842962E+01  0.123147056268E+01
  0.121466103285E+01  0.119369369682E+01  0.116895044265E+01  0.114084622613E+01  0.110982389875E+01
  0.107634899545E+01  0.104090465185E+01  0.100398683065E+01  0.966100037199E+00  0.927753690672E+00
  0.889459321223E+00  0.851728750601E+00  0.000000000000E+00  0.000000000000E+00  0.000000000000E+00
  0.000000000000E+00  0.000000000000E+00  0.000000000000E+00  0.000000000000E+00  0.000000000000E+00
  0.000000000000E+00  0.000000000000E+00  0.000000000000E+00  0.000000000000E+00  0.000000000000E+00
  0.000000000000E+00  0.000000000000E+00  0.000000000000E+00  0.000000000000E+00  0.000000000000E+00
  0.000000000000E+00  0.000000000000E+00  0.000000000000E+00  0.000000000000E+00  0.000000000000E+00
  0.000000000000E+00  0.000000000000E+00  0.000000000000E+00  0.000000000000E+00  0.000000000000E+00
  0.000000000000E+00  0.000000000000E+00  0.000000000000E+00  0.000000000000E+00  0.000000000000E+00
  0.000000000000E+00  0.000000000000E+00  0.000000000000E+00  0.000000000000E+00  0.000000000000E+00
  0.000000000000E+00  0.000000000000E+00  0.000000000000E+00  0.000000000000E+00  0.000000000000E+00
  0.000000000000E+00  0.000000000000E+00  0.000000000000E+00
 pseudo wavefunction
  0.115293364860E-07  0.122913379869E-07  0.131037019945E-07  0.139697570875E-07  0.148930518384E-07
  0.158773693534E-07  0.169267427734E-07  0.180454717989E-07  0.192381403083E-07  0.205096351393E-07
  0.218651661123E-07  0.233102873774E-07  0.248509201717E-07  0.264933770810E-07  0.282443879051E-07
  0.301111272323E-07  0.321012438367E-07  0.342228920180E-07  0.364847650132E-07  0.388961306161E-07
  0.414668691513E-07  0.442075139574E-07  0.471292945467E-07  0.502441826168E-07  0.535649411033E-07
  0.571051764749E-07  0.608793944840E-07  0.649030596031E-07  0.691926583883E-07  0.737657670320E-07
  0.786411233784E-07  0.838387037011E-07  0.893798045528E-07  0.952871300263E-07  0.101584884782E-06
  0.108298873224E-06  0.115456605230E-06  0.123087408871E-06  0.131222550582E-06  0.139895363269E-06
  0.149141382888E-06  0.158998494052E-06  0.169507085259E-06  0.180710214374E-06  0.192653785064E-06
  0.205386734873E-06  0.218961235744E-06  0.233432907789E-06  0.248861047181E-06  0.265308869118E-06
  0.282843766839E-06  0.301537587759E-06  0.321466927858E-06  0.342713445524E-06  0.365364196136E-06
  0.389511988768E-06  0.415255766460E-06  0.442701011628E-06  0.471960178264E-06  0.503153152705E-06
  0.536407744851E-06  0.571860211852E-06  0.609655816405E-06  0.649949421951E-06  0.692906127207E-06
  0.738701942638E-06  0.787524511639E-06  0.839573879379E-06  0.895063312458E-06  0.954220172743E-06
  0.101728684895E-05  0.108452174980E-05  0.115620036280E-05  0.123261638306E-05  0.131408291659E-05
  0.140093376329E-05  0.149352478457E-05  0.159223536150E-05  0.169746994923E-05  0.180965973419E-05
  0.192926440080E-05  0.205677401496E-05  0.219271103202E-05  0.233763243741E-05  0.249213202885E-05
  0.265684284925E-05  0.283243978057E-05  0.301964230893E-05  0.321921747262E-05  0.343198300485E-05
  0.365881068424E-05  0.390062990675E-05  0.415843149365E-05  0.443327175117E-05  0.472627679845E-05
  0.503864718154E-05  0.537166279230E-05  0.572668811239E-05  0.610517780382E-05  0.650868266905E-05
  0.693885600481E-05  0.739746037601E-05  0.788637483720E-05  0.840760263131E-05  0.896327939718E-05
  0.955568191947E-05  0.101872374568E-04  0.108605336866E-04  0.115783293063E-04  0.123435653366E-04
  0.131593771701E-04  0.140291074172E-04  0.149563196005E-04  0.159448127540E-04  0.169986369874E-04
  0.181221100789E-04  0.193198351638E-04  0.205967195926E-04  0.219579950353E-04  0.234092389131E-04
  0.249563972478E-04  0.266058090191E-04  0.283642321333E-04  0.302388711059E-04  0.322374065744E-04
  0.343680267608E-04  0.366394610122E-04  0.390610155583E-04  0.416426116297E-04  0.443948260964E-04
  0.473289347886E-04  0.504569586813E-04  0.537917131284E-04  0.573468603491E-04  0.611369653815E-04
  0.651775557312E-04  0.694851849605E-04  0.740775004755E-04  0.789733157918E-04  0.841926875703E-04
  0.897569977418E-04  0.956890410522E-04  0.102013118389E-03  0.108755136269E-03  0.115942712894E-03
  0.123605291203E-03  0.131774259395E-03  0.140483079398E-03  0.149767423816E-03  0.159665321919E-03
  0.170217315262E-03  0.181466623561E-03  0.193459321530E-03  0.206244527360E-03  0.219874603642E-03
  0.234405371528E-03  0.249896339020E-03  0.266410944295E-03  0.284016815074E-03  0.302786045076E-03
  0.322795488684E-03  0.344127075016E-03  0.366868142680E-03  0.391111796563E-03  0.416957288096E-03
  0.444510420544E-03  0.473883980951E-03  0.505198200479E-03  0.538581245016E-03  0.574169738004E-03
  0.612109317621E-03  0.652555230527E-03  0.695672964579E-03  0.741638923051E-03  0.790641143041E-03
  0.842880060955E-03  0.898569328116E-03  0.957936679749E-03  0.102122486079E-02  0.108869261221E-02
  0.116061572172E-02  0.123728814310E-02  0.131902318838E-02  0.140615479784E-02  0.149903889249E-02
  0.159805481454E-02  0.170360686141E-02  0.181612591917E-02  0.193607120182E-02  0.206393210302E-02
  0.220023016747E-02  0.234552118931E-02  0.250039744573E-02  0.266549007399E-02  0.284147160095E-02
  0.302905863445E-02  0.322901472664E-02  0.344215341962E-02  0.366934148471E-02  0.391150236695E-02
  0.416961984725E-02  0.444474193529E-02  0.473798500672E-02  0.505053819914E-02  0.538366808210E-02
  0.573872361670E-02  0.611714142161E-02  0.652045136275E-02  0.695028248476E-02  0.740836930305E-02
  0.789655847612E-02  0.841681587834E-02  0.897123409431E-02  0.956204035643E-02  0.101916049479E-01
  0.108624500940E-01  0.115772593649E-01  0.123388876136E-01  0.131503714729E-01  0.140149404344E-01
  0.149360285346E-01  0.159172866702E-01  0.169625955655E-01  0.180760794132E-01  0.192621202095E-01
  0.205253728002E-01  0.218707806557E-01  0.233035923855E-01  0.248293790027E-01  0.264540519431E-01
  0.281838818366E-01  0.300255180243E-01  0.319860088059E-01  0.340728223920E-01  0.362938685263E-01
  0.386575207289E-01  0.411726390983E-01  0.438485935910E-01  0.466952876801E-01  0.497231822684E-01
  0.529433197096E-01  0.563673477571E-01  0.600075432293E-01  0.638768351409E-01  0.679888270049E-01
  0.723578179628E-01  0.769988223437E-01  0.819275871919E-01  0.871606072326E-01  0.927151366678E-01
  0.986091971099E-01  0.104861580863E+00  0.111491848661E+00  0.118520320850E+00  0.125968060889E+00
  0.133856849887E+00  0.142209150779E+00  0.151048060542E+00  0.160397248737E+00  0.170280880436E+00
  0.180723521452E+00  0.191750023571E+00  0.203385387319E+00  0.215654599595E+00  0.228582443326E+00
  0.242193276142E+00  0.256510774930E+00  0.271557643018E+00  0.287355276684E+00  0.303923387719E+00
  0.321279578833E+00  0.339438868942E+00  0.358413165667E+00  0.378210682937E+00  0.398835302264E+00
  0.420285877213E+00  0.442555481871E+00  0.465630605657E+00  0.489490298810E+00  0.514105275314E+00
  0.539436982897E+00  0.565436653217E+00  0.592044349373E+00  0.619188032494E+00  0.646782674429E+00
  0.674729449334E+00  0.702915043288E+00  0.731211127688E+00  0.759474048967E+00  0.787544793737E+00
  0.815249294377E+00  0.842399144736E+00  0.868792798165E+00  0.894217319639E+00  0.918450758885E+00
  0.941265200853E+00  0.962430531753E+00  0.981718931323E+00  0.998910062949E+00  0.101379688064E+01
  0.102619190376E+01  0.103593372549E+01  0.104289341864E+01  0.104698038369E+01  0.104814705167E+01
  0.104639171501E+01  0.104175862259E+01  0.103433435635E+01  0.102423942690E+01  0.101161401386E+01
  0.996596868211E+00  0.979296633446E+00  0.959755277597E+00  0.937901416670E+00  0.913693801250E+00
  0.887328226781E+00  0.859044110886E+00  0.829085796038E+00  0.797700206483E+00  0.765134610533E+00
  0.731634473266E+00  0.697441376957E+00  0.662790980115E+00  0.627911000805E+00  0.593019223658E+00
  0.558321531697E+00  0.524010079830E+00  0.490261603681E+00  0.457236023954E+00  0.425075414088E+00
  0.393903410500E+00  0.363825106166E+00  0.334927425560E+00  0.307279935375E+00  0.280936007722E+00
  0.255934225473E+00  0.232299905692E+00  0.210046617769E+00  0.189177587724E+00  0.169686907828E+00
  0.151560507948E+00  0.134776886661E+00  0.119307639095E+00  0.105117847745E+00  0.921664168555E-01
  0.804064290536E-01  0.697855871241E-01  0.602467795103E-01  0.517287814423E-01  0.441670797907E-01
  0.374947920897E-01  0.316436398237E-01  0.265449325666E-01  0.221305214709E-01  0.183336862001E-01
  0.150899270456E-01  0.123376423405E-01  0.100186794624E-01  0.807875507657E-02  0.646774651789E-02
  0.513986119587E-02  0.405369464865E-02  0.317219045061E-02
 ae wavefunction
  0.393907261625E-05  0.417029696357E-05  0.441434691169E-05  0.467197956722E-05  0.494399493352E-05
  0.523123848918E-05  0.553460391816E-05  0.585503600122E-05  0.619353367705E-05  0.655115328628E-05
  0.692901200742E-05  0.732829149805E-05  0.775024175383E-05  0.819618519931E-05  0.866752102096E-05
  0.916572977038E-05  0.969237823158E-05  0.102491245948E-04  0.108377239379E-04  0.114600340383E-04
  0.121180215479E-04  0.128137685271E-04  0.135494793961E-04  0.143274882947E-04  0.151502668998E-04
  0.160204327219E-04  0.169407579021E-04  0.179141785553E-04  0.189438046855E-04  0.200329307063E-04
  0.211850466109E-04  0.224038498283E-04  0.236932578100E-04  0.250574213903E-04  0.265007389715E-04
  0.280278715838E-04  0.296437588746E-04  0.313536360846E-04  0.331630520748E-04  0.350778884656E-04
  0.371043799619E-04  0.392491359344E-04  0.415191633381E-04  0.439218910492E-04  0.464651957102E-04
  0.491574291755E-04  0.520074476591E-04  0.550246426872E-04  0.582189739701E-04  0.616010043112E-04
  0.651819366795E-04  0.689736535779E-04  0.729887588526E-04  0.772406220884E-04  0.817434257552E-04
  0.865122152701E-04  0.915629521541E-04  0.969125704793E-04  0.102579036794E-03  0.108581413754E-03
  0.114939927674E-03  0.121676040240E-03  0.128812524634E-03  0.136373546344E-03  0.144384748927E-03
  0.152873345043E-03  0.161868213048E-03  0.171399999512E-03  0.181501227980E-03  0.192206414373E-03
  0.203552189404E-03  0.215577428437E-03  0.228323389208E-03  0.241833857889E-03  0.256155303949E-03
  0.271337044367E-03  0.287431417690E-03  0.304493968532E-03  0.322583643092E-03  0.341762996340E-03
  0.362098411496E-03  0.383660332532E-03  0.406523510389E-03  0.430767263699E-03  0.456475754791E-03
  0.483738281832E-03  0.512649587968E-03  0.543310188398E-03  0.575826716326E-03  0.610312288799E-03
  0.646886893475E-03  0.685677797423E-03  0.726819979067E-03  0.770456584477E-03  0.816739409231E-03
  0.865829407119E-03  0.917897226994E-03  0.973123779187E-03  0.103170083284E-02  0.109383164566E-02
  0.115973162756E-02  0.122962903977E-02  0.130376573097E-02  0.138239791209E-02  0.146579697138E-02
  0.155425033151E-02  0.164806235036E-02  0.174755526718E-02  0.185307019600E-02  0.196496816785E-02
  0.208363122364E-02  0.220946355943E-02  0.234289272569E-02  0.248437088227E-02  0.263437611070E-02
  0.279341378520E-02  0.296201800403E-02  0.314075308235E-02  0.333021510780E-02  0.353103355980E-02
  0.374387299346E-02  0.396943478864E-02  0.420845896436E-02  0.446172605891E-02  0.473005907496E-02
  0.501432548922E-02  0.531543932538E-02  0.563436328867E-02  0.597211095975E-02  0.632974904523E-02
  0.670839968098E-02  0.710924278404E-02  0.753351844787E-02  0.798252937453E-02  0.845764333671E-02
  0.896029566103E-02  0.949199172271E-02  0.100543094406E-01  0.106489017598E-01  0.112774991071E-01
  0.119419118029E-01  0.126440324126E-01  0.133858380143E-01  0.141693923628E-01  0.149968479223E-01
  0.158704477415E-01  0.167925271381E-01  0.177655151601E-01  0.187919357858E-01  0.198744088211E-01
  0.210156504491E-01  0.222184733840E-01  0.234857865752E-01  0.248205944038E-01  0.262259953103E-01
  0.277051797849E-01  0.292614276501E-01  0.308981045554E-01  0.326186576037E-01  0.344266100202E-01
  0.363255547689E-01  0.383191470183E-01  0.404110953507E-01  0.426051516040E-01  0.449050992293E-01
  0.473147400443E-01  0.498378792543E-01  0.524783086111E-01  0.552397875740E-01  0.581260223360E-01
  0.611406425722E-01  0.642871757710E-01  0.675690190035E-01  0.709894079893E-01  0.745513833221E-01
  0.782577537176E-01  0.821110561574E-01  0.861135128086E-01  0.902669846122E-01  0.945729214457E-01
  0.990323087845E-01  0.103645610807E+00  0.108412709916E+00  0.113332842669E+00  0.118404532165E+00
  0.123625516945E+00  0.128992676541E+00  0.134501953827E+00  0.140148274413E+00  0.145925463370E+00
  0.151826159641E+00  0.157841728602E+00  0.163962173280E+00  0.170176044864E+00  0.176470353226E+00
  0.182830478259E+00  0.189240082932E+00  0.195681029038E+00  0.202133296659E+00  0.208574908387E+00
  0.214981859376E+00  0.221328054222E+00  0.227585251770E+00  0.233723018955E+00  0.239708695063E+00
  0.245507368139E+00  0.251081865823E+00  0.256392763476E+00  0.261398413004E+00  0.266054996161E+00
  0.270316606189E+00  0.274135361433E+00  0.277461554077E+00  0.280243836390E+00  0.282429446060E+00
  0.283964471443E+00  0.284794157140E+00  0.284863250163E+00  0.284116387040E+00  0.282498522211E+00
  0.279955397923E+00  0.276434055414E+00  0.271883386649E+00  0.266254725215E+00  0.259502474333E+00
  0.251584769220E+00  0.242464170268E+00  0.232108382683E+00  0.220490997297E+00  0.207592246273E+00
  0.193399766387E+00  0.177909361408E+00  0.161125754037E+00  0.143063316688E+00  0.123746769353E+00
  0.103211831811E+00  0.815058166159E-01  0.586881486649E-01  0.348307967446E-01  0.100186022567E-01
 -0.156505096746E-01 -0.420654513537E-01 -0.691020402293E-01 -0.966232266500E-01 -0.124479493067E+00
 -0.152509431395E+00 -0.180540496273E+00 -0.208389918136E+00 -0.235865744312E+00 -0.262767967464E+00
 -0.288889711444E+00 -0.314018485058E+00 -0.337937578254E+00 -0.360427728112E+00 -0.381269164481E+00
 -0.400244025782E+00 -0.417138986554E+00 -0.431747889471E+00 -0.443874254458E+00 -0.453333644855E+00
 -0.459955918361E+00 -0.463587378673E+00 -0.464092811255E+00 -0.461357362741E+00 -0.455288215211E+00
 -0.445816013085E+00 -0.432896013733E+00 -0.416508948291E+00 -0.396661591288E+00 -0.373387046912E+00
 -0.346744764645E+00 -0.316820299796E+00 -0.283724834834E+00 -0.247594476487E+00 -0.208589341356E+00
 -0.166892440145E+00 -0.122708367780E+00 -0.762618044229E-01 -0.277958312680E-01  0.224299339192E-01
  0.741413736650E-01  0.127052066908E+00  0.180865625128E+00  0.235278143954E+00  0.289980744380E+00
  0.344662182753E+00  0.399011519967E+00  0.452720854317E+00  0.505488120822E+00  0.557019922034E+00
  0.607034250876E+00  0.655262798322E+00  0.701452387199E+00  0.745365123746E+00  0.786777298405E+00
  0.825477819596E+00  0.861267515754E+00  0.893960382921E+00  0.923386812659E+00  0.949397803901E+00
  0.971868937465E+00  0.990703343757E+00  0.100583353955E+01  0.101722233443E+01  0.102486305786E+01
  0.102877927089E+01  0.102902403844E+01  0.102567879179E+01  0.101885180757E+01  0.100867633455E+01
  0.995308427965E+00  0.978924553776E+00  0.959719035391E+00  0.937901416670E+00  0.913693801250E+00
  0.887328226781E+00  0.859044110886E+00  0.829085796038E+00  0.797700206483E+00  0.765134610533E+00
  0.731634473266E+00  0.697441376957E+00  0.662790980115E+00  0.627911000805E+00  0.593019223658E+00
  0.558321531697E+00  0.524010079830E+00  0.490261603681E+00  0.457236023954E+00  0.425075414088E+00
  0.393903410500E+00  0.363825106166E+00  0.334927425560E+00  0.307279935375E+00  0.280936007722E+00
  0.255934225473E+00  0.232299905692E+00  0.210046617769E+00  0.189177587724E+00  0.169686907828E+00
  0.151560507948E+00  0.134776886661E+00  0.119307639095E+00  0.105117847745E+00  0.921664168555E-01
  0.804064290536E-01  0.697855871241E-01  0.602467795103E-01  0.517287814423E-01  0.441670797907E-01
  0.374947920897E-01  0.316436398237E-01  0.265449325666E-01  0.221305214709E-01  0.183336862001E-01
  0.150899270456E-01  0.123376423405E-01  0.100186794624E-01  0.807875507657E-02  0.646774651789E-02
  0.513986119587E-02  0.405369464865E-02  0.317219045061E-02
 pseudo wavefunction
  0.156762439495E-07  0.167123245108E-07  0.178168821210E-07  0.189944425924E-07  0.202498308593E-07
  0.215881907471E-07  0.230150060491E-07  0.245361229958E-07  0.261577742088E-07  0.278866042388E-07
  0.297296967906E-07  0.316946037482E-07  0.337893761176E-07  0.360225970149E-07  0.384034168352E-07
  0.409415907449E-07  0.436475186527E-07  0.465322878222E-07  0.496077183007E-07  0.528864113509E-07
  0.563818010829E-07  0.601082094991E-07  0.640809051777E-07  0.683161658332E-07  0.728313450137E-07
  0.776449432042E-07  0.827766836313E-07  0.882475930765E-07  0.940800880315E-07  0.100298066548E-06
  0.106927006155E-06  0.113994068255E-06  0.121528209409E-06  0.129560299990E-06  0.138123250664E-06
  0.147252147242E-06  0.156984394441E-06  0.167359869143E-06  0.178421083789E-06  0.190213360567E-06
  0.202785017117E-06  0.216187564506E-06  0.230475918288E-06  0.245708623519E-06  0.261948094632E-06
  0.279260871180E-06  0.297717890471E-06  0.317394778227E-06  0.338372158453E-06  0.360735983781E-06
  0.384577887657E-06  0.409995559795E-06  0.437093146449E-06  0.465981677146E-06  0.496779519609E-06
  0.529612864762E-06  0.564616243780E-06  0.601933079312E-06  0.641716273146E-06  0.684128832697E-06
  0.729344538919E-06  0.777548658343E-06  0.828938702192E-06  0.883725235655E-06  0.942132740651E-06
  0.100440053562E-05  0.107078375609E-05  0.114155440007E-05  0.121700244253E-05  0.129743702353E-05
  0.138318771487E-05  0.147460587048E-05  0.157206606605E-05  0.167596763376E-05  0.178673629855E-05
  0.190482592240E-05  0.203072036401E-05  0.216493546131E-05  0.230802114504E-05  0.246056369200E-05
  0.262318812719E-05  0.279656078481E-05  0.298139203839E-05  0.317843921146E-05  0.338850968049E-05
  0.361246418305E-05  0.385122034443E-05  0.410575643746E-05  0.437711539081E-05  0.466640906211E-05
  0.497482279358E-05  0.530362026869E-05  0.565414868981E-05  0.602784429802E-05  0.642623825777E-05
  0.685096293039E-05  0.730375856225E-05  0.778648041493E-05  0.830110636659E-05  0.884974501569E-05
  0.943464432030E-05  0.100582008083E-04  0.107229693965E-04  0.114316738580E-04  0.121872179822E-04
  0.129926974718E-04  0.138514126259E-04  0.147668818618E-04  0.157428561296E-04  0.167833342803E-04
  0.178925794485E-04  0.190751365187E-04  0.203358507450E-04  0.216798876013E-04  0.231127539442E-04
  0.246403205725E-04  0.262688462794E-04  0.280050034928E-04  0.298559056098E-04  0.318291361381E-04
  0.339327797622E-04  0.361754554631E-04  0.385663518248E-04  0.411152646757E-04  0.438326372146E-04
  0.467296027898E-04  0.498180305033E-04  0.531105738279E-04  0.566207224368E-04  0.603628574565E-04
  0.643523103695E-04  0.686054258090E-04  0.731396285001E-04  0.779734946237E-04  0.831268278934E-04
  0.886207406571E-04  0.944777403553E-04  0.100721821688E-03  0.107378564871E-03  0.114475240373E-03
  0.122040920582E-03  0.130106598827E-03  0.138705316275E-03  0.147872297190E-03  0.157645093134E-03
  0.168063736674E-03  0.179170905244E-03  0.191012095814E-03  0.203635811089E-03  0.217093757988E-03
  0.231441059227E-03  0.246736478849E-03  0.263042662633E-03  0.280426394363E-03  0.298958868982E-03
  0.318715983771E-03  0.339778648705E-03  0.362233117278E-03  0.386171339116E-03  0.411691335826E-03
  0.438897601600E-03  0.467901530197E-03  0.498821870036E-03  0.531785209246E-03  0.566926492625E-03
  0.604389572612E-03  0.644327796485E-03  0.686904632165E-03  0.732294335137E-03  0.780682659188E-03
  0.832267613811E-03  0.887260271314E-03  0.945885626887E-03  0.100838351506E-02  0.107500958621E-02
  0.114603634706E-02  0.122175426925E-02  0.130247297046E-02  0.138852247270E-02  0.148025454286E-02
  0.157804412071E-02  0.168229084005E-02  0.179342064900E-02  0.191188753569E-02  0.203817536629E-02
  0.217279984233E-02  0.231631058507E-02  0.246929335497E-02  0.263237241472E-02  0.280621304504E-02
  0.299152422282E-02  0.318906147171E-02  0.339962989613E-02  0.362408740995E-02  0.386334817201E-02
  0.411838624125E-02  0.439023946496E-02  0.468001361433E-02  0.498888678248E-02  0.531811406063E-02
  0.566903250936E-02  0.604306644228E-02  0.644173304083E-02  0.686664831937E-02  0.731953346121E-02
  0.780222154660E-02  0.831666469526E-02  0.886494164652E-02  0.944926580150E-02  0.100719937525E-01
  0.107356343259E-01  0.114428581656E-01  0.121965078850E-01  0.129996088171E-01  0.138553803903E-01
  0.147672481633E-01  0.157388565463E-01  0.167740822424E-01  0.178770484390E-01  0.190521397797E-01
  0.203040181494E-01  0.216376393008E-01  0.230582703507E-01  0.245715081757E-01  0.261832987289E-01
  0.278999573028E-01  0.297281897540E-01  0.316751147060E-01  0.337482867366E-01  0.359557205524E-01
  0.383059161444E-01  0.408078849070E-01  0.434711766946E-01  0.463059077740E-01  0.493227896157E-01
  0.525331584499E-01  0.559490054904E-01  0.595830077057E-01  0.634485589878E-01  0.675598015378E-01
  0.719316572477E-01  0.765798588193E-01  0.815209803072E-01  0.867724667241E-01  0.923526622797E-01
  0.982808367559E-01  0.104577209444E+00  0.111262969981E+00  0.118360295314E+00  0.125892361933E+00
  0.133883352368E+00  0.142358454820E+00  0.151343854653E+00  0.160866716299E+00  0.170955153962E+00
  0.181638189298E+00  0.192945694064E+00  0.204908315478E+00  0.217557381808E+00  0.230924785467E+00
  0.245042840610E+00  0.259944111982E+00  0.275661211473E+00  0.292226558601E+00  0.309672100852E+00
  0.328028989604E+00  0.347327207135E+00  0.367595140087E+00  0.388859094641E+00  0.411142748705E+00
  0.434466536486E+00  0.458846961145E+00  0.484295831643E+00  0.510819420598E+00  0.538417540927E+00
  0.567082540350E+00  0.596798214525E+00  0.627538641721E+00  0.659266944634E+00  0.691933988218E+00
  0.725477026347E+00  0.759818314806E+00  0.794863713552E+00  0.830501307454E+00  0.866600081746E+00
  0.903008696261E+00  0.939554410904E+00  0.976042223689E+00  0.101225429163E+01  0.104794971339E+01
  0.108286476024E+01  0.111671364789E+01  0.114918994457E+01  0.117996870998E+01  0.120870945249E+01
  0.123505997790E+01  0.125866117834E+01  0.127915277404E+01  0.129617996914E+01  0.130940091559E+01
  0.131849479240E+01  0.132317020165E+01  0.132317345728E+01  0.131829620108E+01  0.130838162742E+01
  0.129332844494E+01  0.127309156445E+01  0.124767840004E+01  0.121713963477E+01  0.118155337176E+01
  0.114100181204E+01  0.109554002685E+01  0.104515707912E+01  0.989732159887E+00  0.929172795644E+00
  0.863654282367E+00  0.793390796864E+00  0.000000000000E+00  0.000000000000E+00  0.000000000000E+00
  0.000000000000E+00  0.000000000000E+00  0.000000000000E+00  0.000000000000E+00  0.000000000000E+00
  0.000000000000E+00  0.000000000000E+00  0.000000000000E+00  0.000000000000E+00  0.000000000000E+00
  0.000000000000E+00  0.000000000000E+00  0.000000000000E+00  0.000000000000E+00  0.000000000000E+00
  0.000000000000E+00  0.000000000000E+00  0.000000000000E+00  0.000000000000E+00  0.000000000000E+00
  0.000000000000E+00  0.000000000000E+00  0.000000000000E+00  0.000000000000E+00  0.000000000000E+00
  0.000000000000E+00  0.000000000000E+00  0.000000000000E+00  0.000000000000E+00  0.000000000000E+00
  0.000000000000E+00  0.000000000000E+00  0.000000000000E+00  0.000000000000E+00  0.000000000000E+00
  0.000000000000E+00  0.000000000000E+00  0.000000000000E+00  0.000000000000E+00  0.000000000000E+00
  0.000000000000E+00  0.000000000000E+00  0.000000000000E+00
 ae wavefunction
  0.523471101433E-05  0.554198965019E-05  0.586631248074E-05  0.620868564009E-05  0.657017226874E-05
  0.695189594012E-05  0.735504428872E-05  0.778087285263E-05  0.823070914148E-05  0.870595694749E-05
  0.920810091155E-05  0.973871136213E-05  0.102994494435E-04  0.108920725521E-04  0.115184400950E-04
  0.121805196068E-04  0.128803932183E-04  0.136202645317E-04  0.144024659053E-04  0.152294661766E-04
  0.161038788691E-04  0.170284708745E-04  0.180061716911E-04  0.190400832043E-04  0.201334900753E-04
  0.212898707663E-04  0.225129092314E-04  0.238065073329E-04  0.251747980176E-04  0.266221592982E-04
  0.281532290969E-04  0.297729210017E-04  0.314864409929E-04  0.332993051977E-04  0.352173587418E-04
  0.372467957624E-04  0.393941806562E-04  0.416664706408E-04  0.440710397092E-04  0.466157040657E-04
  0.493087491354E-04  0.521589582449E-04  0.551756430780E-04  0.583686760185E-04  0.617485244957E-04
  0.653262874580E-04  0.691137341069E-04  0.731233450315E-04  0.773683558922E-04  0.818628038121E-04
  0.866215766428E-04  0.916604652830E-04  0.969962192380E-04  0.102646605620E-03  0.108630471799E-03
  0.114967811933E-03  0.121679837611E-03  0.128789052863E-03  0.136319333796E-03  0.144296013160E-03
  0.152745970109E-03  0.161697725512E-03  0.171181543109E-03  0.181229536901E-03  0.191875785128E-03
  0.203156451238E-03  0.215109912262E-03  0.227776895036E-03  0.241200620752E-03  0.255426958306E-03
  0.270504586985E-03  0.286485169034E-03  0.303423532681E-03  0.321377866236E-03  0.340409923902E-03
  0.360585243987E-03  0.381973380218E-03  0.404648146926E-03  0.428687878878E-03  0.454175706595E-03
  0.481199848039E-03  0.509853917575E-03  0.540237253183E-03  0.572455262927E-03  0.606619791752E-03
  0.642849509706E-03  0.681270322771E-03  0.722015807510E-03  0.765227670809E-03  0.811056236049E-03
  0.859660957078E-03  0.911210961481E-03  0.965885624591E-03  0.102387517586E-02  0.108538133920E-02
  0.115061800904E-02  0.121981196370E-02  0.129320361817E-02  0.137104781785E-02  0.145361467547E-02
  0.154119045300E-02  0.163407849070E-02  0.173260018540E-02  0.183709602006E-02  0.194792664702E-02
  0.206547402694E-02  0.219014262586E-02  0.232236067258E-02  0.246258147880E-02  0.261128482407E-02
  0.276897840823E-02  0.293619937321E-02  0.311351589683E-02  0.330152886046E-02  0.350087359291E-02
  0.371222169243E-02  0.393628292870E-02  0.417380722672E-02  0.442558673397E-02  0.469245797228E-02
  0.497530407550E-02  0.527505711372E-02  0.559270050452E-02  0.592927151117E-02  0.628586382757E-02
  0.666363024865E-02  0.706378542504E-02  0.748760869949E-02  0.793644702224E-02  0.841171794145E-02
  0.891491266392E-02  0.944759918025E-02  0.100114254476E-01  0.106081226215E-01  0.112395083274E-01
  0.119074899598E-01  0.126140679978E-01  0.133613393193E-01  0.141515005001E-01  0.149868510759E-01
  0.158697967474E-01  0.168028525032E-01  0.177886456329E-01  0.188299186016E-01  0.199295317502E-01
  0.210904657852E-01  0.223158240159E-01  0.236088342950E-01  0.249728506106E-01  0.264113542764E-01
  0.279279546602E-01  0.295263893850E-01  0.312105239326E-01  0.329843505728E-01  0.348519865353E-01
  0.368176713352E-01  0.388857631563E-01  0.410607341879E-01  0.433471648069E-01  0.457497364859E-01
  0.482732233033E-01  0.509224819226E-01  0.537024399012E-01  0.566180821806E-01  0.596744356045E-01
  0.628765513022E-01  0.662294847697E-01  0.697382734743E-01  0.734079118028E-01  0.772433231707E-01
  0.812493291041E-01  0.854306151052E-01  0.897916931122E-01  0.943368603660E-01  0.990701544962E-01
  0.103995304651E+00  0.109115678497E+00  0.114434224933E+00  0.119953412372E+00  0.125675162468E+00
  0.131600779187E+00  0.137730873146E+00  0.144065281191E+00  0.150602981191E+00  0.157342002126E+00
  0.164279329532E+00  0.171410806490E+00  0.178731030364E+00  0.186233245602E+00  0.193909232981E+00
  0.201749195784E+00  0.209741643506E+00  0.217873273771E+00  0.226128853320E+00  0.234491098993E+00
  0.242940559804E+00  0.251455501300E+00  0.260011793496E+00  0.268582803752E+00  0.277139295988E+00
  0.285649337624E+00  0.294078215652E+00  0.302388363205E+00  0.310539298189E+00  0.318487575763E+00
  0.326186756995E+00  0.333587396726E+00  0.340637054446E+00  0.347280332729E+00  0.353458948245E+00
  0.359111840497E+00  0.364175323121E+00  0.368583281932E+00  0.372267422917E+00  0.375157572269E+00
  0.377182029581E+00  0.378267974758E+00  0.378341929017E+00  0.377330270431E+00  0.375159804539E+00
  0.371758390272E+00  0.367055620963E+00  0.360983559452E+00  0.353477525469E+00  0.344476932583E+00
  0.333926171043E+00  0.321775531854E+00  0.307982166261E+00  0.292511073662E+00  0.275336109579E+00
  0.256441003941E+00  0.235820378448E+00  0.213480750263E+00  0.189441507810E+00  0.163735842973E+00
  0.136411622764E+00  0.107532182333E+00  0.771770204217E-01  0.454423777516E-01  0.124416785908E-01
 -0.216941842598E-01 -0.568167406509E-01 -0.927600295784E-01 -0.129340899040E+00 -0.166359534566E+00
 -0.203600225484E+00 -0.240832366064E+00 -0.277811670278E+00 -0.314281558112E+00 -0.349974659558E+00
 -0.384614396902E+00 -0.417916659720E+00 -0.449591672243E+00 -0.479346222801E+00 -0.506886401474E+00
 -0.531920833106E+00 -0.554164194804E+00 -0.573340742437E+00 -0.589187677190E+00 -0.601458325932E+00
 -0.609925172573E+00 -0.614382761654E+00 -0.614650452232E+00 -0.610574968257E+00 -0.602032680763E+00
 -0.588931565854E+00 -0.571212800233E+00 -0.548851976525E+00 -0.521859936564E+00 -0.490283233126E+00
 -0.454204236921E+00 -0.413740909263E+00 -0.369046261248E+00 -0.320307518838E+00 -0.267745010198E+00
 -0.211610787962E+00 -0.152186995265E+00 -0.897839812496E-01 -0.247381703057E-01  0.425903093186E-01
  0.111820227940E+00  0.182552071219E+00  0.254371046459E+00  0.326850246589E+00  0.399553938357E+00
  0.472040948158E+00  0.543868134019E+00  0.614593950715E+00  0.683782111889E+00  0.751005301085E+00
  0.815848742900E+00  0.877913222337E+00  0.936816943756E+00  0.992195699026E+00  0.104370141191E+01
  0.109100012768E+01  0.113377123055E+01  0.117170929602E+01  0.120452857608E+01  0.123196876296E+01
  0.125380039158E+01  0.126982887223E+01  0.127989700010E+01  0.128388621209E+01  0.128171691989E+01
  0.127334813027E+01  0.125877644607E+01  0.123803448199E+01  0.121118872597E+01  0.117833688353E+01
  0.113960477851E+01  0.109514288493E+01  0.104512257438E+01  0.989732159887E+00  0.929172795644E+00
  0.863654282367E+00  0.793390796864E+00  0.000000000000E+00  0.000000000000E+00  0.000000000000E+00
  0.000000000000E+00  0.000000000000E+00  0.000000000000E+00  0.000000000000E+00  0.000000000000E+00
  0.000000000000E+00  0.000000000000E+00  0.000000000000E+00  0.000000000000E+00  0.000000000000E+00
  0.000000000000E+00  0.000000000000E+00  0.000000000000E+00  0.000000000000E+00  0.000000000000E+00
  0.000000000000E+00  0.000000000000E+00  0.000000000000E+00  0.000000000000E+00  0.000000000000E+00
  0.000000000000E+00  0.000000000000E+00  0.000000000000E+00  0.000000000000E+00  0.000000000000E+00
  0.000000000000E+00  0.000000000000E+00  0.000000000000E+00  0.000000000000E+00  0.000000000000E+00
  0.000000000000E+00  0.000000000000E+00  0.000000000000E+00  0.000000000000E+00  0.000000000000E+00
  0.000000000000E+00  0.000000000000E+00  0.000000000000E+00  0.000000000000E+00  0.000000000000E+00
  0.000000000000E+00  0.000000000000E+00  0.000000000000E+00
 pseudo wavefunction
  0.477733822045E-12  0.525869834649E-12  0.578855986803E-12  0.637180974024E-12  0.701382732330E-12
  0.772053399670E-12  0.849844777257E-12  0.935474341180E-12  0.102973185975E-11  0.113348667759E-11
  0.124769573367E-11  0.137341238723E-11  0.151179613302E-11  0.166412329536E-11  0.183179879982E-11
  0.201636913098E-11  0.221953659570E-11  0.244317502374E-11  0.268934705013E-11  0.296032313911E-11
  0.325860252474E-11  0.358693626156E-11  0.394835259776E-11  0.434618490500E-11  0.478410242231E-11
  0.526614409778E-11  0.579675584013E-11  0.638083152362E-11  0.702375812469E-11  0.773146540645E-11
  0.851048060930E-11  0.936798865226E-11  0.103118984000E-10  0.113509156069E-10  0.124946232108E-10
  0.137535697175E-10  0.151393664902E-10  0.166647948419E-10  0.183439239185E-10  0.201922404601E-10
  0.222267916355E-10  0.244663422702E-10  0.269315479158E-10  0.296451453572E-10  0.326321623163E-10
  0.359201482843E-10  0.395394286125E-10  0.435233842056E-10  0.479087593964E-10  0.527360008409E-10
  0.580496305613E-10  0.638986565757E-10  0.703370249027E-10  0.774241171092E-10  0.852252979911E-10
  0.938125184372E-10  0.103264979038E-09  0.113669860556E-09  0.125123128004E-09  0.137730415733E-09
  0.151608001707E-09  0.166883879943E-09  0.183698941005E-09  0.202208271451E-09  0.222582584203E-09
  0.245009793047E-09  0.269696745766E-09  0.296871131920E-09  0.326783582831E-09  0.359709983175E-09
  0.395954015481E-09  0.435849961012E-09  0.479765782858E-09  0.528106519680E-09  0.581318021398E-09
  0.639891061293E-09  0.704365862422E-09  0.775337080128E-09  0.853459286564E-09  0.939453007838E-09
  0.103411136945E-08  0.113830741133E-08  0.125300213987E-08  0.137925339137E-08  0.151822558842E-08
  0.167120047945E-08  0.183958896027E-08  0.202494408682E-08  0.222897539897E-08  0.245356468761E-08
  0.270078335045E-08  0.297291149645E-08  0.327245897523E-08  0.360218852537E-08  0.396514125508E-08
  0.436466469020E-08  0.480444364830E-08  0.528853422355E-08  0.582140119584E-08  0.640795920912E-08
  0.705361809876E-08  0.776433278598E-08  0.854665819945E-08  0.940780973069E-08  0.103557297807E-07
  0.113991610115E-07  0.125477269784E-07  0.138120208867E-07  0.152037032902E-07  0.167356096345E-07
  0.184218686356E-07  0.202780325851E-07  0.223212207851E-07  0.245702774348E-07  0.270459454241E-07
  0.297710576386E-07  0.327707475389E-07  0.360726809565E-07  0.397073112437E-07  0.437081601310E-07
  0.481121268813E-07  0.529598285920E-07  0.582959747828E-07  0.641697797244E-07  0.706354163083E-07
  0.777525156449E-07  0.855867169954E-07  0.942102731085E-07  0.103702716543E-06  0.114151593123E-06
  0.125653269281E-06  0.138313820743E-06  0.152250010741E-06  0.167590366774E-06  0.184476365844E-06
  0.203063739098E-06  0.223523907897E-06  0.246045564557E-06  0.270836412323E-06  0.298125080633E-06
  0.328163233307E-06  0.361227889106E-06  0.397623976039E-06  0.437687142979E-06  0.481786854467E-06
  0.530329797264E-06  0.583763630007E-06  0.642581110547E-06  0.707324638983E-06  0.778591258254E-06
  0.857038158360E-06  0.943388734911E-06  0.103843925783E-05  0.114306621158E-05  0.125823437464E-05
  0.138500571243E-05  0.152454916579E-05  0.167815142499E-05  0.184722878850E-05  0.203334021572E-05
  0.223820169368E-05  0.246370205005E-05  0.271192035792E-05  0.298514509238E-05  0.328589521521E-05
  0.361694338151E-05  0.398134148168E-05  0.438244875349E-05  0.482396272268E-05  0.530995325636E-05
  0.584490004191E-05  0.643373383581E-05  0.708188186085E-05  0.779531776855E-05  0.858061662516E-05
  0.944501542554E-05  0.103964796898E-04  0.114437767531E-04  0.125965564198E-04  0.138654397209E-04
  0.152621165869E-04  0.167994533295E-04  0.184916109154E-04  0.203541751120E-04  0.224042996946E-04
  0.246608640213E-04  0.271446464133E-04  0.298785149192E-04  0.328876372027E-04  0.361997114608E-04
  0.398452204731E-04  0.438577110883E-04  0.482741016833E-04  0.531350203818E-04  0.584851770919E-04
  0.643737727264E-04  0.708549493004E-04  0.779882849616E-04  0.858393384104E-04  0.944802475998E-04
  0.103990388087E-03  0.114457096926E-03  0.125976468579E-03  0.138654229925E-03  0.152606702171E-03
  0.167961858175E-03  0.184860484565E-03  0.203457458886E-03  0.223923153021E-03  0.246444975199E-03
  0.271229064058E-03  0.298502149510E-03  0.328513596565E-03  0.361537649735E-03  0.397875897344E-03
  0.437859976800E-03  0.481854543856E-03  0.530260530996E-03  0.583518722336E-03  0.642113674913E-03
  0.706578018910E-03  0.777497172212E-03  0.855514507809E-03  0.941337015889E-03  0.103574150602E-02
  0.113958139867E-02  0.125379415936E-02  0.137940943317E-02  0.151755794180E-02  0.166948121049E-02
  0.183654219695E-02  0.202023690015E-02  0.222220703230E-02  0.244425384315E-02  0.268835319180E-02
  0.295667196750E-02  0.325158596673E-02  0.357569934047E-02  0.393186573125E-02  0.432321122560E-02
  0.475315925279E-02  0.522545756564E-02  0.574420744311E-02  0.631389525728E-02  0.693942654887E-02
  0.762616275512E-02  0.837996073124E-02  0.920721520156E-02  0.101149042676E-01  0.111106380874E-01
  0.122027108244E-01  0.134001559372E-01  0.147128048561E-01  0.161513490511E-01  0.177274054491E-01
  0.194535851006E-01  0.213435649265E-01  0.234121622915E-01  0.256754120496E-01  0.281506455922E-01
  0.308565712929E-01  0.338133555853E-01  0.370427037316E-01  0.405679391353E-01  0.444140798246E-01
  0.486079104789E-01  0.531780480935E-01  0.581549990786E-01  0.635712052692E-01  0.694610759923E-01
  0.758610029994E-01  0.828093547478E-01  0.903464462060E-01  0.985144801030E-01  0.107357455353E+00
  0.116921038318E+00  0.127252392631E+00  0.138399963619E+00  0.150413213886E+00  0.163342307544E+00
  0.177237741929E+00  0.192149927521E+00  0.208128719315E+00  0.225222906232E+00  0.243479669343E+00
  0.262944024931E+00  0.283658274733E+00  0.305661493247E+00  0.328989090730E+00  0.353672500312E+00
  0.379739048492E+00  0.407212079530E+00  0.436111415594E+00  0.466454244754E+00  0.498256537040E+00
  0.531535092774E+00  0.566310325173E+00  0.602609867710E+00  0.640473072457E+00  0.679956424275E+00
  0.721139832562E+00  0.764133672148E+00  0.809086322715E+00  0.856191797568E+00  0.905696854821E+00
  0.957906747471E+00  0.101318849824E+01  0.107197029253E+01  0.113473528940E+01  0.120200789010E+01
  0.127433032445E+01  0.135222738296E+01  0.143615731912E+01  0.152644958921E+01  0.162351448581E+01
  0.172824597260E+01  0.184172405293E+01  0.000000000000E+00  0.000000000000E+00  0.000000000000E+00
  0.000000000000E+00  0.000000000000E+00  0.000000000000E+00  0.000000000000E+00  0.000000000000E+00
  0.000000000000E+00  0.000000000000E+00  0.000000000000E+00  0.000000000000E+00  0.000000000000E+00
  0.000000000000E+00  0.000000000000E+00  0.000000000000E+00  0.000000000000E+00  0.000000000000E+00
  0.000000000000E+00  0.000000000000E+00  0.000000000000E+00  0.000000000000E+00  0.000000000000E+00
  0.000000000000E+00  0.000000000000E+00  0.000000000000E+00  0.000000000000E+00  0.000000000000E+00
  0.000000000000E+00  0.000000000000E+00  0.000000000000E+00  0.000000000000E+00  0.000000000000E+00
  0.000000000000E+00  0.000000000000E+00  0.000000000000E+00  0.000000000000E+00  0.000000000000E+00
  0.000000000000E+00  0.000000000000E+00  0.000000000000E+00  0.000000000000E+00  0.000000000000E+00
  0.000000000000E+00  0.000000000000E+00  0.000000000000E+00
 ae wavefunction
 -0.610399643508E-09 -0.667358698588E-09 -0.729171502788E-09 -0.796289814315E-09 -0.869204638336E-09
 -0.948449896676E-09 -0.103460642409E-08 -0.112830632210E-08 -0.123023770345E-08 -0.134114986506E-08
 -0.146185892895E-08 -0.159325399550E-08 -0.173630385730E-08 -0.189206432630E-08 -0.206168622982E-08
 -0.224642414479E-08 -0.244764592775E-08 -0.266684312869E-08 -0.290564236260E-08 -0.316581773025E-08
 -0.344930439419E-08 -0.375821340267E-08 -0.409484790070E-08 -0.446172083810E-08 -0.486157432926E-08
 -0.529740081751E-08 -0.577246620843E-08 -0.629033516710E-08 -0.685489878001E-08 -0.747040480293E-08
 -0.814149074399E-08 -0.887322004995E-08 -0.967112168899E-08 -0.105412334532E-07 -0.114901493359E-07
 -0.125250713695E-07 -0.136538663514E-07 -0.148851279214E-07 -0.162282445036E-07 -0.176934736721E-07
 -0.192920235539E-07 -0.210361419436E-07 -0.229392138676E-07 -0.250158684071E-07 -0.272820956687E-07
 -0.297553748753E-07 -0.324548146460E-07 -0.354013066356E-07 -0.386176938185E-07 -0.421289548260E-07
 -0.459624058815E-07 -0.501479220296E-07 -0.547181795184E-07 -0.597089213723E-07 -0.651592483942E-07
 -0.711119380528E-07 -0.776137939371E-07 -0.847160287498E-07 -0.924746840490E-07 -0.100951090328E-06
 -0.110212371288E-06 -0.120331996623E-06 -0.131390387960E-06 -0.143475583140E-06 -0.156683964450E-06
 -0.171121057005E-06 -0.186902404076E-06 -0.204154526781E-06 -0.223015976340E-06 -0.243638487805E-06
 -0.266188245120E-06 -0.290847268256E-06 -0.317814934231E-06 -0.347309644979E-06 -0.379570656221E-06
 -0.414860082965E-06 -0.453465098630E-06 -0.495700346554E-06 -0.541910584353E-06 -0.592473583633E-06
 -0.647803309669E-06 -0.708353408058E-06 -0.774621027929E-06 -0.847151014124E-06 -0.926540503873E-06
 -0.101344396686E-05 -0.110857873134E-05 -0.121273104292E-05 -0.132676270723E-05 -0.145161837244E-05
 -0.158833351279E-05 -0.173804318058E-05 -0.190199159970E-05 -0.208154268138E-05 -0.227819155003E-05
 -0.249357717558E-05 -0.272949621732E-05 -0.298791819498E-05 -0.327100211252E-05 -0.358111467270E-05
 -0.392085023294E-05 -0.429305266708E-05 -0.470083931303E-05 -0.514762720251E-05 -0.563716178817E-05
 -0.617354840179E-05 -0.676128670020E-05 -0.740530837790E-05 -0.811101845136E-05 -0.888434044787E-05
 -0.973176586138E-05 -0.106604082713E-04 -0.116780625551E-04 -0.127932696649E-04 -0.140153874797E-04
 -0.153546682911E-04 -0.168223435285E-04 -0.184307163848E-04 -0.201932630610E-04 -0.221247434100E-04
 -0.242413218298E-04 -0.265606993265E-04 -0.291022577512E-04 -0.318872172962E-04 -0.349388084307E-04
 -0.382824595555E-04 -0.419460017629E-04 -0.459598922032E-04 -0.503574576842E-04 -0.551751602633E-04
 -0.604528867325E-04 -0.662342640543E-04 -0.725670029661E-04 -0.795032721483E-04 -0.871001055400E-04
 -0.954198455832E-04 -0.104530625391E-03 -0.114506893062E-03 -0.125429981603E-03 -0.137388728176E-03
 -0.150480146658E-03 -0.164810157778E-03 -0.180494381412E-03 -0.197658995910E-03 -0.216441669681E-03
 -0.236992570579E-03 -0.259475459031E-03 -0.284068871185E-03 -0.310967398750E-03 -0.340383072619E-03
 -0.372546857750E-03 -0.407710267188E-03 -0.446147103571E-03 -0.488155336835E-03 -0.534059127293E-03
 -0.584211003661E-03 -0.638994206010E-03 -0.698825204013E-03 -0.764156401235E-03 -0.835479036513E-03
 -0.913326293823E-03 -0.998276632207E-03 -0.109095734759E-02 -0.119204837837E-02 -0.130228636671E-02
 -0.142246898733E-02 -0.155345955560E-02 -0.169619192591E-02 -0.185167569149E-02 -0.202100169536E-02
 -0.220534786192E-02 -0.240598535694E-02 -0.262428508269E-02 -0.286172451301E-02 -0.311989487112E-02
 -0.340050865057E-02 -0.370540747676E-02 -0.403657030325E-02 -0.439612193325E-02 -0.478634185229E-02
 -0.520967335313E-02 -0.566873292850E-02 -0.616631990081E-02 -0.670542625123E-02 -0.728924660266E-02
 -0.792118830261E-02 -0.860488154285E-02 -0.934418944221E-02 -0.101432180084E-01 -0.110063258823E-01
 -0.119381337570E-01 -0.129435333482E-01 -0.140276957820E-01 -0.151960792482E-01 -0.164544357545E-01
 -0.178088167992E-01 -0.192655777624E-01 -0.208313807946E-01 -0.225131959574E-01 -0.243183003398E-01
 -0.262542748357E-01 -0.283289982238E-01 -0.305506381407E-01 -0.329276384908E-01 -0.354687027995E-01
 -0.381827730087E-01 -0.410790032314E-01 -0.441667280474E-01 -0.474554250038E-01 -0.509546710818E-01
 -0.546740929797E-01 -0.586233111161E-01 -0.628118772797E-01 -0.672492058139E-01 -0.719444981450E-01
 -0.769066603691E-01 -0.821442135560E-01 -0.876651964446E-01 -0.934770603039E-01 -0.995865558799E-01
 -0.105999612500E+00 -0.112721209535E+00 -0.119755240561E+00 -0.127104370666E+00 -0.134769887518E+00
 -0.142751546985E+00 -0.151047414304E+00 -0.159653702023E+00 -0.168564606201E+00 -0.177772142602E+00
 -0.187265984877E+00 -0.197033306995E+00 -0.207058632427E+00 -0.217323692802E+00 -0.227807298939E+00
 -0.238485227296E+00 -0.249330124998E+00 -0.260311436635E+00 -0.271395356157E+00 -0.282544807260E+00
 -0.293719455875E+00 -0.304875758540E+00 -0.315967050412E+00 -0.326943675808E+00 -0.337753161569E+00
 -0.348340427949E+00 -0.358648022473E+00 -0.368616350734E+00 -0.378183869858E+00 -0.387287214932E+00
 -0.395861255629E+00 -0.403839131577E+00 -0.411152374844E+00 -0.417731256705E+00 -0.423505443558E+00
 -0.428404908075E+00 -0.432360912305E+00 -0.435306877343E+00 -0.437179068235E+00 -0.437917132173E+00
 -0.437464560370E+00 -0.435769118898E+00 -0.432783256579E+00 -0.428464474140E+00 -0.422775630993E+00
 -0.415685170645E+00 -0.407167254972E+00 -0.397201807550E+00 -0.385774472716E+00 -0.372876501388E+00
 -0.358504575624E+00 -0.342660583871E+00 -0.325351357364E+00 -0.306588376192E+00 -0.286387450853E+00
 -0.264768382352E+00 -0.241754600868E+00 -0.217372780122E+00 -0.191652422016E+00 -0.164625404767E+00
 -0.136325487146E+00 -0.106787762536E+00 -0.760480588444E-01 -0.441422829646E-01 -0.111057106397E-01
  0.230277782606E-01  0.582265240265E-01  0.944619846796E-01  0.131709728423E+00  0.169950536737E+00
  0.209171596291E+00  0.249367674275E+00  0.290542061702E+00  0.332707016824E+00  0.375883575981E+00
  0.420100968347E+00  0.465396281380E+00  0.511815109050E+00  0.559413516339E+00  0.608261065723E+00
  0.658444362109E+00  0.710070666840E+00  0.763271445171E+00  0.818205922867E+00  0.875064805762E+00
  0.934074298611E+00  0.995500522562E+00  0.105965440933E+01  0.112689715663E+01  0.119764634508E+01
  0.127238286121E+01  0.135165880319E+01  0.143610659500E+01  0.152644958921E+01  0.162351448581E+01
  0.172824597260E+01  0.184172405293E+01  0.000000000000E+00  0.000000000000E+00  0.000000000000E+00
  0.000000000000E+00  0.000000000000E+00  0.000000000000E+00  0.000000000000E+00  0.000000000000E+00
  0.000000000000E+00  0.000000000000E+00  0.000000000000E+00  0.000000000000E+00  0.000000000000E+00
  0.000000000000E+00  0.000000000000E+00  0.000000000000E+00  0.000000000000E+00  0.000000000000E+00
  0.000000000000E+00  0.000000000000E+00  0.000000000000E+00  0.000000000000E+00  0.000000000000E+00
  0.000000000000E+00  0.000000000000E+00  0.000000000000E+00  0.000000000000E+00  0.000000000000E+00
  0.000000000000E+00  0.000000000000E+00  0.000000000000E+00  0.000000000000E+00  0.000000000000E+00
  0.000000000000E+00  0.000000000000E+00  0.000000000000E+00  0.000000000000E+00  0.000000000000E+00
  0.000000000000E+00  0.000000000000E+00  0.000000000000E+00  0.000000000000E+00  0.000000000000E+00
  0.000000000000E+00  0.000000000000E+00  0.000000000000E+00
 End of Dataset
